 vasp.6.4.2 20Jul23 (build Aug 23 2023 19:13:21) complex

 executed on             LinuxIFC date 2023.10.04  14:41:56

 INCAR:
   SYSTEM = Relaxation_HSE06
   ISTART = 1
   ICHARG = 2
   PREC = Accurate
   LORBIT = 11
   ENCUT = 450
   LWAVE = .TRUE.
   ALGO = Damped
   NELM = 64
   EDIFF = 1E-6
   EDIFFG = -1E-3
   SIGMA = 0.1
   ISMEAR = 0
   NSW = 128
   IBRION = 2
   POTIM = .5
   ISIF = 3
   GGA = PE
   LHFCALC = .TRUE.
   AEXX = 0.25
   HFSCREEN = 0.2
   NKRED = 1
   NPAR = 8
   KPAR = 2

 POTCAR:    PAW_PBE C 08Apr2002
 POTCAR:    PAW_PBE C 08Apr2002
   VRHFIN =C: s2p2

   TITEL  = PAW_PBE C 08Apr2002
   POMASS =   12.011; ZVAL   =    4.000    mass and valenz
   ENMAX  =  400.000; ENMIN  =  300.000 eV

  PAW_PBE C 08Apr2002                   :

 POSCAR: Graphene with lattice parameter 2.467
  positions in direct lattice
  velocities in cartesian coordinates
 exchange correlation table for  LEXCH =        8
   RHO(1)=    0.500       N(1)  =     2000
   RHO(2)=  100.500       N(2)  =     4000

 VTST: version 4.1, (05/19/21)

 CHAIN: initializing optimizer

 OPT: Using VASP Conjugate-Gradient optimizer
 CHAIN: Read ICHAIN            0

 POSCAR: Graphene with lattice parameter 2.467
  positions in direct lattice
  velocities in cartesian coordinates

 ion  position               nearest neighbor table
   1  0.333  0.667  0.100-   2 1.42   2 1.42   2 1.42
   2  0.667  0.333  0.100-   1 1.42   1 1.42   1 1.42

  LATTYP: Found a hexagonal cell.
 ALAT       =     2.4669998518
 C/A-ratio  =     6.0802597897

  Lattice vectors:

 A1 = (   2.1364845000,   1.2335000000,   0.0000000000)
 A2 = (  -2.1364845000,   1.2335000000,   0.0000000000)
 A3 = (   0.0000000000,   0.0000000000,  15.0000000000)

Analysis of symmetry for initial positions (statically):
 Subroutine PRICEL returns:
 Original cell was already a primitive cell.

 Routine SETGRP: Setting up the symmetry group for a
 hexagonal supercell.

 Subroutine GETGRP returns: Found 24 space group operations
 (whereof 12 operations were pure point group operations)
 out of a pool of 24 trial point group operations.

The static configuration has the point symmetry C_6v.
 The point group associated with its full space group is D_6h.

Analysis of symmetry for dynamics (positions and initial velocities):
 Subroutine PRICEL returns:
 Original cell was already a primitive cell.

 Routine SETGRP: Setting up the symmetry group for a
 hexagonal supercell.

 Subroutine GETGRP returns: Found 24 space group operations
 (whereof 12 operations were pure point group operations)
 out of a pool of 24 trial point group operations.

The dynamic configuration has the point symmetry C_6v.
 The point group associated with its full space group is D_6h.

 Subroutine INISYM returns: Found 24 space group operations
 (whereof 12 operations are pure point group operations),
 and found     1 'primitive' translations

                                     Primitive cell

  volume of cell :      79.0606

  direct lattice vectors                    reciprocal lattice vectors
     2.136484500  1.233500000  0.000000000     0.234029313  0.405350628  0.000000000
    -2.136484500  1.233500000  0.000000000    -0.234029313  0.405350628  0.000000000
     0.000000000  0.000000000 15.000000000     0.000000000  0.000000000  0.066666667

  length of vectors
     2.466999852  2.466999852 15.000000000     0.468058598  0.468058598  0.066666667

  position of ions in fractional coordinates (direct lattice)
     0.333333000  0.666666000  0.100000000
     0.666666000  0.333333000  0.100000000

  ion indices of the primitive-cell ions
   primitive index   ion index
                 1           1
                 2           2

 KPOINTS: k-points

Automatic generation of k-mesh.
 Grid dimensions read from file:
 generate k-points for:   23   23    1

 Generating k-lattice:

  Cartesian coordinates                     Fractional coordinates (reciprocal lattice)
     0.010175188  0.017623940  0.000000000     0.043478261 -0.000000000  0.000000000
    -0.010175188  0.017623940  0.000000000    -0.000000000  0.043478261  0.000000000
     0.000000000  0.000000000  0.066666667     0.000000000  0.000000000  1.000000000

  Length of vectors
     0.020350374  0.020350374  0.066666667

  Shift w.r.t. Gamma in fractional coordinates (k-lattice)
     0.000000000  0.000000000  0.000000000

 Subroutine IBZKPT returns following result:

 Found     56 irreducible k-points:

 Following reciprocal coordinates:
            Coordinates               Weight
  0.000000  0.000000  0.000000      1.000000
  0.043478  0.000000  0.000000      6.000000
  0.086957 -0.000000  0.000000      6.000000
  0.130435  0.000000  0.000000      6.000000
  0.173913 -0.000000  0.000000      6.000000
  0.217391 -0.000000  0.000000      6.000000
  0.260870  0.000000  0.000000      6.000000
  0.304348  0.000000  0.000000      6.000000
  0.347826  0.000000  0.000000      6.000000
  0.391304  0.000000  0.000000      6.000000
  0.434783  0.000000  0.000000      6.000000
  0.478261 -0.000000  0.000000      6.000000
  0.043478  0.043478  0.000000      6.000000
  0.086957  0.043478  0.000000     12.000000
  0.130435  0.043478  0.000000     12.000000
  0.173913  0.043478  0.000000     12.000000
  0.217391  0.043478  0.000000     12.000000
  0.260870  0.043478  0.000000     12.000000
  0.304348  0.043478  0.000000     12.000000
  0.347826  0.043478  0.000000     12.000000
  0.391304  0.043478  0.000000     12.000000
  0.434783  0.043478  0.000000     12.000000
  0.478261  0.043478  0.000000      6.000000
  0.086957  0.086957  0.000000      6.000000
  0.130435  0.086957  0.000000     12.000000
  0.173913  0.086957  0.000000     12.000000
  0.217391  0.086957  0.000000     12.000000
  0.260870  0.086957  0.000000     12.000000
  0.304348  0.086957  0.000000     12.000000
  0.347826  0.086957  0.000000     12.000000
  0.391304  0.086957  0.000000     12.000000
  0.434783  0.086957  0.000000     12.000000
  0.130435  0.130435  0.000000      6.000000
  0.173913  0.130435  0.000000     12.000000
  0.217391  0.130435  0.000000     12.000000
  0.260870  0.130435  0.000000     12.000000
  0.304348  0.130435  0.000000     12.000000
  0.347826  0.130435  0.000000     12.000000
  0.391304  0.130435  0.000000     12.000000
  0.434783  0.130435  0.000000      6.000000
  0.173913  0.173913  0.000000      6.000000
  0.217391  0.173913  0.000000     12.000000
  0.260870  0.173913  0.000000     12.000000
  0.304348  0.173913  0.000000     12.000000
  0.347826  0.173913  0.000000     12.000000
  0.391304  0.173913  0.000000     12.000000
  0.217391  0.217391  0.000000      6.000000
  0.260870  0.217391  0.000000     12.000000
  0.304348  0.217391  0.000000     12.000000
  0.347826  0.217391  0.000000     12.000000
  0.391304  0.217391  0.000000      6.000000
  0.260870  0.260870  0.000000      6.000000
  0.304348  0.260870  0.000000     12.000000
  0.347826  0.260870  0.000000     12.000000
  0.304348  0.304348  0.000000      6.000000
  0.347826  0.304348  0.000000      6.000000

 Following cartesian coordinates:
            Coordinates               Weight
  0.000000  0.000000  0.000000      1.000000
  0.010175  0.017624  0.000000      6.000000
  0.020350  0.035248  0.000000      6.000000
  0.030526  0.052872  0.000000      6.000000
  0.040701  0.070496  0.000000      6.000000
  0.050876  0.088120  0.000000      6.000000
  0.061051  0.105744  0.000000      6.000000
  0.071226  0.123368  0.000000      6.000000
  0.081402  0.140992  0.000000      6.000000
  0.091577  0.158615  0.000000      6.000000
  0.101752  0.176239  0.000000      6.000000
  0.111927  0.193863  0.000000      6.000000
  0.000000  0.035248  0.000000      6.000000
  0.010175  0.052872  0.000000     12.000000
  0.020350  0.070496  0.000000     12.000000
  0.030526  0.088120  0.000000     12.000000
  0.040701  0.105744  0.000000     12.000000
  0.050876  0.123368  0.000000     12.000000
  0.061051  0.140992  0.000000     12.000000
  0.071226  0.158615  0.000000     12.000000
  0.081402  0.176239  0.000000     12.000000
  0.091577  0.193863  0.000000     12.000000
  0.101752  0.211487  0.000000      6.000000
  0.000000  0.070496  0.000000      6.000000
  0.010175  0.088120  0.000000     12.000000
  0.020350  0.105744  0.000000     12.000000
  0.030526  0.123368  0.000000     12.000000
  0.040701  0.140992  0.000000     12.000000
  0.050876  0.158615  0.000000     12.000000
  0.061051  0.176239  0.000000     12.000000
  0.071226  0.193863  0.000000     12.000000
  0.081402  0.211487  0.000000     12.000000
  0.000000  0.105744  0.000000      6.000000
  0.010175  0.123368  0.000000     12.000000
  0.020350  0.140992  0.000000     12.000000
  0.030526  0.158615  0.000000     12.000000
  0.040701  0.176239  0.000000     12.000000
  0.050876  0.193863  0.000000     12.000000
  0.061051  0.211487  0.000000     12.000000
  0.071226  0.229111  0.000000      6.000000
 -0.000000  0.140992  0.000000      6.000000
  0.010175  0.158615  0.000000     12.000000
  0.020350  0.176239  0.000000     12.000000
  0.030526  0.193863  0.000000     12.000000
  0.040701  0.211487  0.000000     12.000000
  0.050876  0.229111  0.000000     12.000000
 -0.000000  0.176239  0.000000      6.000000
  0.010175  0.193863  0.000000     12.000000
  0.020350  0.211487  0.000000     12.000000
  0.030526  0.229111  0.000000     12.000000
  0.040701  0.246735  0.000000      6.000000
  0.000000  0.211487  0.000000      6.000000
  0.010175  0.229111  0.000000     12.000000
  0.020350  0.246735  0.000000     12.000000
 -0.000000  0.246735  0.000000      6.000000
  0.010175  0.264359  0.000000      6.000000

 Subroutine IBZKPT_HF returns following result:

 Found    529 k-points in 1st BZ
 the following    529 k-points will be used (e.g. in the exchange kernel)
 Following reciprocal coordinates:   # in IRBZ
  0.000000  0.000000  0.000000    0.00189036   1 t-inv F
  0.043478  0.000000  0.000000    0.00189036   2 t-inv F
  0.086957 -0.000000  0.000000    0.00189036   3 t-inv F
  0.130435  0.000000  0.000000    0.00189036   4 t-inv F
  0.173913 -0.000000  0.000000    0.00189036   5 t-inv F
  0.217391 -0.000000  0.000000    0.00189036   6 t-inv F
  0.260870  0.000000  0.000000    0.00189036   7 t-inv F
  0.304348  0.000000  0.000000    0.00189036   8 t-inv F
  0.347826  0.000000  0.000000    0.00189036   9 t-inv F
  0.391304  0.000000  0.000000    0.00189036  10 t-inv F
  0.434783  0.000000  0.000000    0.00189036  11 t-inv F
  0.478261 -0.000000  0.000000    0.00189036  12 t-inv F
  0.043478  0.043478  0.000000    0.00189036  13 t-inv F
  0.086957  0.043478  0.000000    0.00189036  14 t-inv F
  0.130435  0.043478  0.000000    0.00189036  15 t-inv F
  0.173913  0.043478  0.000000    0.00189036  16 t-inv F
  0.217391  0.043478  0.000000    0.00189036  17 t-inv F
  0.260870  0.043478  0.000000    0.00189036  18 t-inv F
  0.304348  0.043478  0.000000    0.00189036  19 t-inv F
  0.347826  0.043478  0.000000    0.00189036  20 t-inv F
  0.391304  0.043478  0.000000    0.00189036  21 t-inv F
  0.434783  0.043478  0.000000    0.00189036  22 t-inv F
  0.478261  0.043478  0.000000    0.00189036  23 t-inv F
[...]
   0.66666600  0.33333300  0.10000000

 position of ions in cartesian coordinates  (Angst):
  -0.71216079  1.23349877  1.50000000
   0.71216079  1.23349877  1.50000000

 k-point   1 :   0.0000 0.0000 0.0000  plane waves:    1749
 k-point   2 :   0.0435 0.0000 0.0000  plane waves:    1747
 k-point   3 :   0.0870-0.0000 0.0000  plane waves:    1735
 k-point   4 :   0.1304 0.0000 0.0000  plane waves:    1711
 k-point   5 :   0.1739-0.0000 0.0000  plane waves:    1713
 k-point   6 :   0.2174-0.0000 0.0000  plane waves:    1713
 k-point   7 :   0.2609 0.0000 0.0000  plane waves:    1701
 k-point   8 :   0.3043 0.0000 0.0000  plane waves:    1693
 k-point   9 :   0.3478 0.0000 0.0000  plane waves:    1704
 k-point  10 :   0.3913 0.0000 0.0000  plane waves:    1702
 k-point  11 :   0.4348 0.0000 0.0000  plane waves:    1720
 k-point  12 :   0.4783-0.0000 0.0000  plane waves:    1716
 k-point  13 :   0.0435 0.0435 0.0000  plane waves:    1741
 k-point  14 :   0.0870 0.0435 0.0000  plane waves:    1722
 k-point  15 :   0.1304 0.0435 0.0000  plane waves:    1724
 k-point  16 :   0.1739 0.0435 0.0000  plane waves:    1716
 k-point  17 :   0.2174 0.0435 0.0000  plane waves:    1708
 k-point  18 :   0.2609 0.0435 0.0000  plane waves:    1699
 k-point  19 :   0.3043 0.0435 0.0000  plane waves:    1699
 k-point  20 :   0.3478 0.0435 0.0000  plane waves:    1713
 k-point  21 :   0.3913 0.0435 0.0000  plane waves:    1712
 k-point  22 :   0.4348 0.0435 0.0000  plane waves:    1718
 k-point  23 :   0.4783 0.0435 0.0000  plane waves:    1716
 k-point  24 :   0.0870 0.0870 0.0000  plane waves:    1723
 k-point  25 :   0.1304 0.0870 0.0000  plane waves:    1717
 k-point  26 :   0.1739 0.0870 0.0000  plane waves:    1712
 k-point  27 :   0.2174 0.0870 0.0000  plane waves:    1705
 k-point  28 :   0.2609 0.0870 0.0000  plane waves:    1702
 k-point  29 :   0.3043 0.0870 0.0000  plane waves:    1715
 k-point  30 :   0.3478 0.0870 0.0000  plane waves:    1719
 k-point  31 :   0.3913 0.0870 0.0000  plane waves:    1709
 k-point  32 :   0.4348 0.0870 0.0000  plane waves:    1704
 k-point  33 :   0.1304 0.1304 0.0000  plane waves:    1717
 k-point  34 :   0.1739 0.1304 0.0000  plane waves:    1705
 k-point  35 :   0.2174 0.1304 0.0000  plane waves:    1703
 k-point  36 :   0.2609 0.1304 0.0000  plane waves:    1709
 k-point  37 :   0.3043 0.1304 0.0000  plane waves:    1717
 k-point  38 :   0.3478 0.1304 0.0000  plane waves:    1721
 k-point  39 :   0.3913 0.1304 0.0000  plane waves:    1722
 k-point  40 :   0.4348 0.1304 0.0000  plane waves:    1730
 k-point  41 :   0.1739 0.1739 0.0000  plane waves:    1714
 k-point  42 :   0.2174 0.1739 0.0000  plane waves:    1703
 k-point  43 :   0.2609 0.1739 0.0000  plane waves:    1709
 k-point  44 :   0.3043 0.1739 0.0000  plane waves:    1726
 k-point  45 :   0.3478 0.1739 0.0000  plane waves:    1718
 k-point  46 :   0.3913 0.1739 0.0000  plane waves:    1718
 k-point  47 :   0.2174 0.2174 0.0000  plane waves:    1710
 k-point  48 :   0.2609 0.2174 0.0000  plane waves:    1703
 k-point  49 :   0.3043 0.2174 0.0000  plane waves:    1713
 k-point  50 :   0.3478 0.2174 0.0000  plane waves:    1718
 k-point  51 :   0.3913 0.2174 0.0000  plane waves:    1716
 k-point  52 :   0.2609 0.2609 0.0000  plane waves:    1700
 k-point  53 :   0.3043 0.2609 0.0000  plane waves:    1704
 k-point  54 :   0.3478 0.2609 0.0000  plane waves:    1710
 k-point  55 :   0.3043 0.3043 0.0000  plane waves:    1708
 k-point  56 :   0.3478 0.3043 0.0000  plane waves:    1714

 maximum and minimum number of plane-waves per node :       590      557

 maximum number of plane-waves:      1749
 maximum index in each direction:
   IXMAX=    4   IYMAX=    4   IZMAX=   25
   IXMIN=   -4   IYMIN=   -4   IZMIN=  -25

 parallel 3D FFT for wavefunctions:
    minimum data exchange during FFTs selected (reduces bandwidth)
 parallel 3D FFT for charge:
    minimum data exchange during FFTs selected (reduces bandwidth)

 FFT grid for exact exchange (Hartree Fock)
  NGX = 14; NGY = 14; NGZ = 80

 Radii for the augmentation spheres in the non-local exchange
 for species   1 augmentation radius   0.874 (default was   0.699)
       energy cutoff for augmentation   1800.0

 real space projection operators:
  max/ min on nodes  :         27.63         24.68

 Maximum index for augmentation-charges in exchange          203
  SETUP_FOCK is finished

 Broyden mixing: mesh for mixing (old mesh)
   NGX =  9   NGY =  9   NGZ = 51
  (NGX  = 36   NGY  = 36   NGZ  =216)
  gives a total of   4131 points

 initial charge density was supplied:
 charge density of overlapping atoms calculated
 number of electron       8.0000000 magnetization
 charge density for first step will be calculated from the start-wavefunctions

 Maximum index for augmentation-charges          324 (set IRDMAX)

 initial charge from wavefunction
 First call to EWALD:  gamma=   0.413
 Maximum number of real-space cells 5x 5x 1
 Maximum number of reciprocal cells 2x 2x 8

--------------------------------------- Ionic step        1  -------------------------------------------

--------------------------------------- Iteration      1(   1)  ---------------------------------------

 eigenvalue-minimisations  :     0
 total energy-change (2. order) :-0.2119777E+02  (-0.7141931E-02)
 number of electron       7.9999998 magnetization
 augmentation part        0.1879360 magnetization

 Free energy of the ion-electron system (eV)
  alpha Z        PSCENC =         4.15613880
  Ewald energy   TEWEN  =       835.74592742
  -Hartree energ DENC   =     -1087.17400967
  -exchange      EXHF   =        18.02155981
  -V(xc)+E(xc)   XCENC  =        21.14755095
  PAW double counting   =       947.91833749     -948.79326150
  entropy T*S    EENTRO =        -0.00000000
  eigenvalues    EBANDS =      -103.01480189
  atomic energy  EATOM  =       290.79478791
  free energy    TOTEN  =       -21.19777068 eV

  energy without entropy =      -21.19777068  energy(sigma->0) =      -21.19777068
  exchange ACFDT corr.  =        -0.00000000  see jH, gK, PRB 81, 115126

[...]

  average scaling for gradient   0.8669

 average (electrostatic) potential at core
  the test charge radii are     0.6991
  (the norm of the test charge is              1.0000)
       1 -54.0319       2 -54.0319

 E-fermi :  -2.3666     XC(G=0):  -2.4136     alpha+bet : -2.5354

 Fermi energy:        -2.3666252667

 k-point     1 :       0.0000    0.0000    0.0000
  band No.  band energies     occupation
      1     -24.3875      2.00000
      2     -11.1925      2.00000
      3      -6.3403      2.00000
      4      -6.3402      2.00000
      5       1.1853      0.00000
      6       2.0388      0.00000
      7       2.5190      0.00000
      8       4.4440      0.00000

[...]

 soft charge-density along one line, spin component           1
         0         1         2         3         4         5         6         7         8         9
 total charge-density along one line

------------------------ aborting loop because EDIFF is reached ----------------------------------------

 total charge

# of ion       s       p       d       tot
    1        0.870   1.778   0.000   2.648
    2        0.870   1.778   0.000   2.648
tot          1.739   3.556   0.000   5.295

  FORCE on cell =-STRESS in cart. coord.  units (eV):
  Direction    XX          YY          ZZ          XY          YZ          ZX
  Alpha Z     4.15614     4.15614     4.15614
  Ewald    1104.50998  1104.50935 -1373.27344     0.00000    -0.00000    -0.00000
  Hartree  1075.54572  1075.54571 -1064.36422    -0.00000     0.00000    -0.00000
  E(xc)     -22.63971   -22.63971   -23.12528    -0.00000    -0.00000     0.00000
  Local   -2267.28328 -2267.28301  2333.65191     0.00000    -0.00000     0.00000
  n-local    -5.52092    -6.26546    -5.55093     0.06807    -0.00000     0.00000
  augment    -0.74194    -0.74192    -0.72220     0.00000    -0.00000    -0.00000
  Kinetic   115.75887   123.17124   136.17666    -0.06730     0.00000    -0.00000
  Fock       -8.11097    -7.94424    -6.99615     0.07359    -0.00000     0.00000
  Total      -0.90900    -0.90900    -0.04751     0.00000    -0.00000    -0.00000
  in kB     -18.42095   -18.42095    -0.96287     0.00000    -0.00000    -0.00000

 VOLUME and BASIS-vectors are now :
  energy-cutoff  :      450.00
  volume of cell :       79.06
      direct lattice vectors                 reciprocal lattice vectors
     2.136484500  1.233500000  0.000000000     0.234029313  0.405350628  0.000000000
    -2.136484500  1.233500000  0.000000000    -0.234029313  0.405350628  0.000000000
     0.000000000  0.000000000 15.000000000     0.000000000  0.000000000  0.066666667

[...]

 FORCES acting on ions:
    Electron-Ion                     Ewald-Force                    Non-Local-Force
   -.118E-03 0.228E-03 0.258E-05   -.271E-03 0.289E-14 0.939E-15   -.321E-18 -.378E-16 -.265E-22
   0.118E-03 0.228E-03 0.258E-05   0.271E-03 0.665E-15 -.162E-21   -.926E-17 0.456E-16 -.218E-21
   0.449E-11 0.455E-03 0.730E-05   -.890E-15 0.355E-14 0.939E-15   -.958E-17 0.781E-17 -.245E-21

 POSITION                                       TOTAL-FORCE (eV/Angst)
     -0.71216      1.23350      1.50000         0.000000     -0.000000     -0.000000
      0.71216      1.23350      1.50000        -0.000000      0.000000      0.000000
    total drift:                                0.000000      0.000455      0.000007

  FREE ENERGIE OF THE ION-ELECTRON SYSTEM (eV)
  free  energy   TOTEN  =       -21.20591598 eV

  energy  without entropy=      -21.20591598  energy(sigma->0) =      -21.20591598

 stress matrix after NEB project (eV)
     -0.90900      0.00000     -0.00000
      0.00000     -0.90900     -0.00000
      0.00000     -0.00000     -0.04751
  FORCES: max atom, RMS     0.000000    0.000000
  FORCE total and by dimension    0.000000    0.000000
  Stress total and by dimension    1.286391    0.908995

 writing wavefunctions

[...]

 eigenvalue-minimisations  :     0
 total energy-change (2. order) : 0.1265023E+00  (-0.8044968E-01)
 number of electron       8.0000001 magnetization
 augmentation part        0.2002418 magnetization

[...]

 d Force = 0.0000000E+00[ 0.000E+00, 0.000E+00]  d Energy =-0.3139100E-01 0.314E-01
 d Force = 0.0000000E+00[ 0.000E+00, 0.000E+00]  d Ewald  =-0.5021130E+02 0.502E+02

 stress matrix after NEB project (eV)
      2.37471      0.00000      0.00000
      0.00000      2.37471     -0.00000
      0.00000     -0.00000     -0.03754
  FORCES: max atom, RMS     0.000000    0.000000
  FORCE total and by dimension    0.000000    0.000000
  Stress total and by dimension    3.358559    2.374712
 Steepest descent step on ions:
 trial-energy change:    0.031391  1 .order    0.032138   -0.039862    0.104137
  (g-gl).g = 0.399E-01      g.g   = 0.399E-01  gl.gl    = 0.000E+00
 g(Force)  = 0.311E-41   g(Stress)= 0.399E-01 ortho     = 0.000E+00
 gamma     =   0.00000
 trial     =   1.00000
 opt step  =   0.28313  (harmonic =   0.27682) maximal distance =0.00000000
 next E    =   -21.211576   (d E  =  -0.00566)

[...]

 eigenvalue-minimisations  :     0
 total energy-change (2. order) : 0.1087670E-01  (-0.4230270E-01)
 number of electron       7.9999998 magnetization
 augmentation part        0.1896827 magnetization

[...]

 d Force = 0.0000000E+00[ 0.000E+00, 0.000E+00]  d Energy = 0.3715579E-01-0.372E-01
 d Force = 0.0000000E+00[ 0.000E+00, 0.000E+00]  d Ewald  = 0.3635837E+02-0.364E+02

[...]

 writing wavefunctions

--------------------------------------- Ionic step        4  -------------------------------------------

[...]

--------------------------------------- Iteration      4(   3)  ---------------------------------------

 eigenvalue-minimisations  :     0
 total energy-change (2. order) :-0.5403681E-06  (-0.2140644E-06)
 number of electron       7.9999998 magnetization
 augmentation part        0.1909828 magnetization

 Free energy of the ion-electron system (eV)
  alpha Z        PSCENC =         4.20914877
  Ewald energy   TEWEN  =       849.84439104
  -Hartree energ DENC   =     -1100.96466900
  -exchange      EXHF   =        18.11031016
  -V(xc)+E(xc)   XCENC  =        21.23393108
  PAW double counting   =       948.60657548     -949.50187256
  entropy T*S    EENTRO =        -0.00000000
  eigenvalues    EBANDS =      -103.54428615
  atomic energy  EATOM  =       290.79478791
  free energy    TOTEN  =       -21.21168267 eV

  energy without entropy =      -21.21168267  energy(sigma->0) =      -21.21168267
  exchange ACFDT corr.  =        -0.00000000  see jH, gK, PRB 81, 115126

  average scaling for gradient   0.9130

 average (electrostatic) potential at core
  the test charge radii are     0.6991
  (the norm of the test charge is              1.0000)
       1 -53.9215       2 -53.9215

 E-fermi :  -2.2971     XC(G=0):  -2.4185     alpha+bet : -2.5677

 Fermi energy:        -2.2971264475

[...]

 k-point    56 :       0.3478    0.3043    0.0000
  band No.  band energies     occupation
      1     -17.1534      2.00000
      2     -16.6184      2.00000
      3     -14.3951      2.00000
      4      -2.7384      2.00000
      5      -1.7873      0.00000
      6       8.9364      0.00000
      7      11.1676      0.00000
      8      11.3479      0.00000

 soft charge-density along one line, spin component           1
         0         1         2         3         4         5         6         7         8         9
 total charge-density along one line

------------------------ aborting loop because EDIFF is reached ----------------------------------------

[...]

  FORCE on cell =-STRESS in cart. coord.  units (eV):
  Direction    XX          YY          ZZ          XY          YZ          ZX
  Alpha Z     4.20915     4.20915     4.20915
  Ewald    1120.31701  1120.31637 -1390.78901    -0.00000    -0.00000    -0.00000
  Hartree  1089.91413  1089.91413 -1078.86373    -0.00000     0.00000     0.00000
  E(xc)     -22.72901   -22.72901   -23.21497    -0.00000    -0.00000     0.00000
  Local   -2297.21768 -2297.21741  2365.33329     0.00000    -0.00000    -0.00000
  n-local    -5.62083    -6.45810    -5.63636     0.03180    -0.00000     0.00000
  augment    -0.76181    -0.76179    -0.73701    -0.00000    -0.00000    -0.00000
  Kinetic   116.54988   124.22430   136.69771     0.01000     0.00000    -0.00000
  Fock       -8.16050    -7.99610    -7.04498     0.07269    -0.00000     0.00000
  Total       0.00093     0.00093    -0.04590     0.00000     0.00000     0.00000
  in kB       0.01913     0.01913    -0.94202     0.00000     0.00000     0.00000

 VOLUME and BASIS-vectors are now :
  energy-cutoff  :      450.00
  volume of cell :       78.06
      direct lattice vectors                 reciprocal lattice vectors
     2.122988443  1.225708046  0.000000000     0.235517062  0.407927485  0.000000000
    -2.122988443  1.225708046  0.000000000    -0.235517062  0.407927485  0.000000000
     0.000000000  0.000000000 15.000000000     0.000000000  0.000000000  0.066666667

  length of vectors
     2.451415946  2.451415946 15.000000000     0.471034095  0.471034095  0.066666667

 FORCES acting on ions:
    Electron-Ion                     Ewald-Force                    Non-Local-Force
   -.117E-03 0.226E-03 -.133E-04   -.274E-03 -.685E-14 0.952E-15   0.256E-16 -.114E-16 -.142E-20
   0.117E-03 0.226E-03 -.133E-04   0.274E-03 0.311E-14 0.286E-21   0.384E-16 0.173E-16 0.112E-20
   0.211E-10 0.451E-03 -.244E-04   0.164E-15 -.374E-14 0.952E-15   0.639E-16 0.591E-17 -.291E-21

 POSITION                                       TOTAL-FORCE (eV/Angst)
     -0.70766      1.22571      1.50000        -0.000000     -0.000000     -0.000000
      0.70766      1.22571      1.50000         0.000000      0.000000      0.000000
    total drift:                                0.000000      0.000451     -0.000024

  FREE ENERGIE OF THE ION-ELECTRON SYSTEM (eV)
  free  energy   TOTEN  =       -21.21168267 eV

  energy  without entropy=      -21.21168267  energy(sigma->0) =      -21.21168267

 d Force = 0.0000000E+00[ 0.000E+00, 0.000E+00]  d Energy = 0.1900199E-05-0.190E-05
 d Force = 0.0000000E+00[ 0.000E+00, 0.000E+00]  d Ewald  =-0.2455386E+00 0.246E+00

 stress matrix after NEB project (eV)
      0.00093      0.00000      0.00000
      0.00000      0.00093     -0.00000
     -0.00000      0.00000     -0.04590
  FORCES: max atom, RMS     0.000000    0.000000
  FORCE total and by dimension    0.000000    0.000000
  Stress total and by dimension    0.045918    0.045899

 reached required accuracy - stopping structural energy minimisation
 writing wavefunctions

 total charge

# of ion       s       p       d       tot
    1        0.874   1.797   0.000   2.672
    2        0.874   1.797   0.000   2.672
tot          1.749   3.594   0.000   5.343