 vasp.6.4.2 20Jul23 (build Aug 23 2023 19:13:21) complex

 executed on             LinuxIFC date 2024.05.02  18:11:33

 INCAR:
   SYSTEM = SC
   ISTART = 0
   ICHARG = 2
   PREC = Accurate
   ENCUT = 450
   LCHARG = .TRUE.
   LWAVE = .TRUE.
   ALGO = Normal
   NELM = 64
   EDIFF = 1E-6
   EDIFFG = -1E-3
   SIGMA = 0.1
   ISMEAR = 0
   IBRION = -1
   GGA = PE
   IVDW = 12

 POTCAR:    PAW_PBE C 08Apr2002
 POTCAR:    PAW_PBE C 08Apr2002
   VRHFIN =C: s2p2

   TITEL  = PAW_PBE C 08Apr2002
   POMASS =   12.011; ZVAL   =    4.000    mass and valenz
   ENMAX  =  400.000; ENMIN  =  300.000 eV

  PAW_PBE C 08Apr2002                   :

 POSCAR: Graphene-B4C3 Top with lattice parameter
  positions in direct lattice
 exchange correlation table for  LEXCH =        8
   RHO(1)=    0.500       N(1)  =     2000
   RHO(2)=  100.500       N(2)  =     4000

 VTST: version 4.1, (05/19/21)

 CHAIN: initializing optimizer

 OPT: Using VASP Dynamics algorithm
 CHAIN: Read ICHAIN            0

 POSCAR: Graphene-B4C3 Top with lattice parameter
  positions in direct lattice

 ion  position               nearest neighbor table
   1  0.000  0.500  0.335-   2 1.40   4 1.40   6 1.40
   2  0.167  0.333  0.335-   1 1.40   5 1.40   3 1.40
   3  0.000  0.000  0.335-   4 1.40   2 1.40   8 1.40
   4  0.167  0.833  0.335-   7 1.40   1 1.40   3 1.40
   5  0.500  0.500  0.335-   8 1.40   2 1.40   6 1.40
   6  0.667  0.333  0.335-   5 1.40   1 1.40   7 1.40
   7  0.500  0.000  0.335-   4 1.40   8 1.40   6 1.40
   8  0.667  0.833  0.335-   5 1.40   7 1.40   3 1.40

  LATTYP: Found a hexagonal cell.
 ALAT       =     4.8460000000
 C/A-ratio  =     3.0953363599

  Lattice vectors:

 A1 = (   4.1967591067,   2.4230000000,   0.0000000000)
 A2 = (  -4.1967591067,   2.4230000000,   0.0000000000)
 A3 = (   0.0000000000,   0.0000000000,  15.0000000000)

Analysis of symmetry for initial positions (statically):
 Subroutine PRICEL returns:
 Original cell was already a primitive cell.

 Routine SETGRP: Setting up the symmetry group for a
 hexagonal supercell.

 Subroutine GETGRP returns: Found  3 space group operations
 (whereof  1 operations were pure point group operations)
 out of a pool of 24 trial point group operations.

The static configuration has the point symmetry C_1 .
 The point group associated with its full space group is C_3 .

Analysis of symmetry for dynamics (positions and initial velocities):
 Subroutine PRICEL returns:
 Original cell was already a primitive cell.

 Routine SETGRP: Setting up the symmetry group for a
 hexagonal supercell.

 Subroutine GETGRP returns: Found  3 space group operations
 (whereof  1 operations were pure point group operations)
 out of a pool of 24 trial point group operations.

The dynamic configuration has the point symmetry C_1 .
 The point group associated with its full space group is C_3 .

 Subroutine INISYM returns: Found  3 space group operations
 (whereof  1 operations are pure point group operations),
 and found     1 'primitive' translations

                                     Primitive cell

  volume of cell :     305.0624

  direct lattice vectors                    reciprocal lattice vectors
     4.196759107  2.423000000  0.000000000     0.119139552  0.206355757  0.000000000
    -4.196759107  2.423000000  0.000000000    -0.119139552  0.206355757  0.000000000
     0.000000000  0.000000000 15.000000000     0.000000000  0.000000000  0.066666667

  length of vectors
     4.846000000  4.846000000 15.000000000     0.238279104  0.238279104  0.066666667

  position of ions in fractional coordinates (direct lattice)
     0.000132595  0.500063036  0.335115331
     0.166783864  0.333452843  0.335150012
     0.000115386  0.000071038  0.335075930
     0.166825953  0.833402697  0.335153906
     0.500125878  0.500099855  0.335118110
     0.666781160  0.333405941  0.335013099
     0.500087443  0.000053650  0.335113676
     0.666733165  0.833358192  0.335150101

  ion indices of the primitive-cell ions
   primitive index   ion index
                 1           1
                 2           2
                 3           3
                 4           4
                 5           5
                 6           6
                 7           7
                 8           8

 KPOINTS: k-points

Automatic generation of k-mesh.
 Grid dimensions read from file:
 generate k-points for:   17   17    1

 Generating k-lattice:

  Cartesian coordinates                     Fractional coordinates (reciprocal lattice)
     0.007008209  0.012138574  0.000000000     0.058823529  0.000000000  0.000000000
    -0.007008209  0.012138574  0.000000000     0.000000000  0.058823529  0.000000000
     0.000000000  0.000000000  0.066666667     0.000000000  0.000000000  1.000000000

  Length of vectors
     0.014016418  0.014016418  0.066666667

  Shift w.r.t. Gamma in fractional coordinates (k-lattice)
     0.000000000  0.000000000  0.000000000

 Subroutine IBZKPT returns following result:

 Found     49 irreducible k-points:

 Following reciprocal coordinates:
            Coordinates               Weight
  0.000000  0.000000  0.000000      1.000000
  0.058824  0.000000  0.000000      6.000000
  0.117647 -0.000000  0.000000      6.000000
  0.176471 -0.000000  0.000000      6.000000
  0.235294 -0.000000  0.000000      6.000000
  0.294118  0.000000  0.000000      6.000000
  0.352941  0.000000  0.000000      6.000000
  0.411765  0.000000  0.000000      6.000000
  0.470588 -0.000000  0.000000      6.000000
  0.058824  0.058824  0.000000      6.000000
  0.117647  0.058824  0.000000      6.000000
 -0.117647  0.176471  0.000000      6.000000
  0.176471  0.058824  0.000000      6.000000
 -0.176471  0.235294  0.000000      6.000000
  0.235294  0.058824  0.000000      6.000000
 -0.235294  0.294118  0.000000      6.000000
  0.294118  0.058824  0.000000      6.000000
 -0.294118  0.352941  0.000000      6.000000
  0.352941  0.058824  0.000000      6.000000
 -0.352941  0.411765  0.000000      6.000000
  0.411765  0.058824  0.000000      6.000000
 -0.411765  0.470588  0.000000      6.000000
  0.470588  0.058824  0.000000      6.000000
  0.117647  0.117647  0.000000      6.000000
  0.176471  0.117647  0.000000      6.000000
 -0.176471  0.294118  0.000000      6.000000
  0.235294  0.117647  0.000000      6.000000
 -0.235294  0.352941  0.000000      6.000000
  0.294118  0.117647  0.000000      6.000000
 -0.294118  0.411765  0.000000      6.000000
  0.352941  0.117647  0.000000      6.000000
 -0.352941  0.470588  0.000000      6.000000
  0.411765  0.117647  0.000000      6.000000
 -0.411765 -0.470588  0.000000      6.000000
  0.176471  0.176471  0.000000      6.000000
  0.235294  0.176471  0.000000      6.000000
 -0.235294  0.411765  0.000000      6.000000
  0.294118  0.176471  0.000000      6.000000
 -0.294118  0.470588  0.000000      6.000000
  0.352941  0.176471  0.000000      6.000000
 -0.352941 -0.470588  0.000000      6.000000
  0.411765  0.176471  0.000000      6.000000
  0.235294  0.235294  0.000000      6.000000
  0.294118  0.235294  0.000000      6.000000
 -0.294118 -0.470588  0.000000      6.000000
  0.352941  0.235294  0.000000      6.000000
 -0.352941 -0.411765  0.000000      6.000000
  0.294118  0.294118  0.000000      6.000000
  0.352941  0.294118  0.000000      6.000000

 Following cartesian coordinates:
            Coordinates               Weight
  0.000000  0.000000  0.000000      1.000000
  0.007008  0.012139  0.000000      6.000000
  0.014016  0.024277  0.000000      6.000000
  0.021025  0.036416  0.000000      6.000000
  0.028033  0.048554  0.000000      6.000000
  0.035041  0.060693  0.000000      6.000000
  0.042049  0.072831  0.000000      6.000000
  0.049057  0.084970  0.000000      6.000000
  0.056066  0.097109  0.000000      6.000000
 -0.000000  0.024277  0.000000      6.000000
  0.007008  0.036416  0.000000      6.000000
 -0.035041  0.012139  0.000000      6.000000
  0.014016  0.048554  0.000000      6.000000
 -0.049057  0.012139  0.000000      6.000000
  0.021025  0.060693  0.000000      6.000000
 -0.063074  0.012139  0.000000      6.000000
  0.028033  0.072831  0.000000      6.000000
 -0.077090  0.012139  0.000000      6.000000
  0.035041  0.084970  0.000000      6.000000
 -0.091107  0.012139  0.000000      6.000000
  0.042049  0.097109  0.000000      6.000000
 -0.105123  0.012139  0.000000      6.000000
  0.049057  0.109247  0.000000      6.000000
 -0.000000  0.048554  0.000000      6.000000
  0.007008  0.060693  0.000000      6.000000
 -0.056066  0.024277  0.000000      6.000000
  0.014016  0.072831  0.000000      6.000000
 -0.070082  0.024277  0.000000      6.000000
  0.021025  0.084970  0.000000      6.000000
 -0.084099  0.024277  0.000000      6.000000
  0.028033  0.097109  0.000000      6.000000
 -0.098115  0.024277  0.000000      6.000000
  0.035041  0.109247  0.000000      6.000000
  0.007008 -0.182079  0.000000      6.000000
 -0.000000  0.072831  0.000000      6.000000
  0.007008  0.084970  0.000000      6.000000
 -0.077090  0.036416  0.000000      6.000000
  0.014016  0.097109  0.000000      6.000000
 -0.091107  0.036416  0.000000      6.000000
  0.021025  0.109247  0.000000      6.000000
  0.014016 -0.169940  0.000000      6.000000
  0.028033  0.121386  0.000000      6.000000
 -0.000000  0.097109  0.000000      6.000000
  0.007008  0.109247  0.000000      6.000000
  0.021025 -0.157801  0.000000      6.000000
  0.014016  0.121386  0.000000      6.000000
  0.007008 -0.157801  0.000000      6.000000
  0.000000  0.121386  0.000000      6.000000
  0.007008  0.133524  0.000000      6.000000

 SYSTEM =  SC
 POSCAR =  Graphene-B4C3 Top with lattice parameter

 Startparameter for this run:
   NWRITE =      2    write-flag & timer
   PREC   = accura    normal or accurate (medium, high low for compatibility)
   ISTART =      0    job   : 0-new  1-cont  2-samecut
   ICHARG =      2    charge: 1-file 2-atom 10-const
   ISPIN  =      1    spin polarized calculation?
   LNONCOLLINEAR =      F non collinear calculations
   LSORBIT =      F    spin-orbit coupling
   INIWAV =      1    electr: 0-lowe 1-rand  2-diag
   LASPH  =      F    aspherical Exc in radial PAW
 Electronic Relaxation 1
   ENCUT  =  450.0 eV  33.07 Ry    5.75 a.u.   8.38  8.38 25.95*2*pi/ulx,y,z
   ENINI  =  450.0     initial cutoff
   ENAUG  =  644.9 eV  augmentation charge cutoff
   NELM   =     64;   NELMIN=  2; NELMDL= -5     # of ELM steps
   EDIFF  = 0.1E-05   stopping-criterion for ELM
   LREAL  =      F    real-space projection
   NLSPLINE    = F    spline interpolate recip. space projectors
   LCOMPAT=      F    compatible to vasp.4.4
   GGA_COMPAT  = T    GGA compatible to vasp.4.4-vasp.4.6
   LMAXPAW     = -100 max onsite density
   LMAXMIX     =    2 max onsite mixed and CHGCAR
   VOSKOWN=      0    Vosko Wilk Nusair interpolation
   ROPT   =    0.00000
 Ionic relaxation
   EDIFFG = -.1E-02   stopping-criterion for IOM
   NSW    =      0    number of steps for IOM
   NBLOCK =      1;   KBLOCK =      1    inner block; outer block
   IBRION =     -1    ionic relax: 0-MD 1-quasi-New 2-CG
   NFREE  =      0    steps in history (QN), initial steepest desc. (CG)
   ISIF   =      2    stress and relaxation
[...]
 k-point  17 :   0.2941 0.0588 0.0000  plane waves:    6601
 k-point  18 :  -0.2941 0.3529 0.0000  plane waves:    6601
 k-point  19 :   0.3529 0.0588 0.0000  plane waves:    6589
 k-point  20 :  -0.3529 0.4118 0.0000  plane waves:    6589
 k-point  21 :   0.4118 0.0588 0.0000  plane waves:    6604
 k-point  22 :  -0.4118 0.4706 0.0000  plane waves:    6604
 k-point  23 :   0.4706 0.0588 0.0000  plane waves:    6594
 k-point  24 :   0.1176 0.1176 0.0000  plane waves:    6613
 k-point  25 :   0.1765 0.1176 0.0000  plane waves:    6620
 k-point  26 :  -0.1765 0.2941 0.0000  plane waves:    6620
 k-point  27 :   0.2353 0.1176 0.0000  plane waves:    6600
 k-point  28 :  -0.2353 0.3529 0.0000  plane waves:    6600
 k-point  29 :   0.2941 0.1176 0.0000  plane waves:    6606
 k-point  30 :  -0.2941 0.4118 0.0000  plane waves:    6606
 k-point  31 :   0.3529 0.1176 0.0000  plane waves:    6606
 k-point  32 :  -0.3529 0.4706 0.0000  plane waves:    6606
 k-point  33 :   0.4118 0.1176 0.0000  plane waves:    6598
 k-point  34 :  -0.4118-0.4706 0.0000  plane waves:    6598
 k-point  35 :   0.1765 0.1765 0.0000  plane waves:    6593
 k-point  36 :   0.2353 0.1765 0.0000  plane waves:    6611
 k-point  37 :  -0.2353 0.4118 0.0000  plane waves:    6611
 k-point  38 :   0.2941 0.1765 0.0000  plane waves:    6606
 k-point  39 :  -0.2941 0.4706 0.0000  plane waves:    6606
 k-point  40 :   0.3529 0.1765 0.0000  plane waves:    6609
 k-point  41 :  -0.3529-0.4706 0.0000  plane waves:    6609
 k-point  42 :   0.4118 0.1765 0.0000  plane waves:    6596
 k-point  43 :   0.2353 0.2353 0.0000  plane waves:    6598
 k-point  44 :   0.2941 0.2353 0.0000  plane waves:    6606
 k-point  45 :  -0.2941-0.4706 0.0000  plane waves:    6606
 k-point  46 :   0.3529 0.2353 0.0000  plane waves:    6600
 k-point  47 :  -0.3529-0.4118 0.0000  plane waves:    6600
 k-point  48 :   0.2941 0.2941 0.0000  plane waves:    6612
 k-point  49 :   0.3529 0.2941 0.0000  plane waves:    6618

 maximum and minimum number of plane-waves per node :      6648     6589

 maximum number of plane-waves:      6648
 maximum index in each direction:
   IXMAX=    8   IYMAX=    8   IZMAX=   25
   IXMIN=   -8   IYMIN=   -8   IZMIN=  -25

 serial   3D FFT for wavefunctions
 parallel 3D FFT for charge:
    minimum data exchange during FFTs selected (reduces bandwidth)

 Broyden mixing: mesh for mixing (old mesh)
   NGX = 17   NGY = 17   NGZ = 51
  (NGX  = 72   NGY  = 72   NGZ  =216)
  gives a total of  14739 points

 initial charge density was supplied:
 charge density of overlapping atoms calculated
 number of electron      32.0000000 magnetization
 keeping initial charge density in first step

 Maximum index for augmentation-charges          332 (set IRDMAX)

 First call to EWALD:  gamma=   0.263
 Maximum number of real-space cells 4x 4x 2
 Maximum number of reciprocal cells 2x 2x 6

--------------------------------------- Ionic step        1  -------------------------------------------

--------------------------------------- Iteration      1(   1)  ---------------------------------------

 eigenvalue-minimisations  : 65760
 total energy-change (2. order) :-0.7440174E+02  (-0.1598099E+04)
 number of electron      32.0000000 magnetization
 augmentation part       32.0000000 magnetization

 Free energy of the ion-electron system (eV)
  alpha Z        PSCENC =        17.23381672
  Ewald energy   TEWEN  =      3505.25084595
  -Hartree energ DENC   =     -4369.32699140
  -exchange      EXHF   =         0.00000000
  -V(xc)+E(xc)   XCENC  =       106.39822501
  PAW double counting   =       868.17637104     -872.73161751
  entropy T*S    EENTRO =        -0.00000062
  eigenvalues    EBANDS =      -506.55741692
  atomic energy  EATOM  =      1177.15502788
  Solvation  Ediel_sol  =         0.00000000
  free energy    TOTEN  =       -74.40173984 eV

  energy without entropy =      -74.40173922  energy(sigma->0) =      -74.40173953

[...]

 eigenvalue-minimisations  : 47040
 total energy-change (2. order) : 0.1846274E-09  ( 0.2702022E-12)
 number of electron      32.0000000 magnetization
 augmentation part        0.8933891 magnetization

 Broyden mixing:
  rms(total) = 0.13566E+01    rms(broyden)= 0.13565E+01
  rms(prec ) = 0.15194E+01
  weight for this iteration     100.00

[...]

 eigenvalue-minimisations  : 86400
 total energy-change (2. order) : 0.4275534E+01  (-0.4174592E+00)
 number of electron      32.0000000 magnetization
 augmentation part        0.8490638 magnetization

[...]

 eigenvalues of (default mixing * dielectric matrix)
  average eigenvalue GAMMA=   2.1881
  2.1881

[...]

 eigenvalue-minimisations  : 91200
 total energy-change (2. order) : 0.6920330E-02  (-0.8799478E-03)
 number of electron      32.0000000 magnetization
 augmentation part        0.7998624 magnetization

[...]

 Broyden mixing:
  rms(total) = 0.87651E-05    rms(broyden)= 0.87643E-05
  rms(prec ) = 0.10779E-04
  weight for this iteration     100.00

 eigenvalues of (default mixing * dielectric matrix)
  average eigenvalue GAMMA=   3.0123
  9.6371  5.8694  3.9556  2.9724  2.7975  1.9765  2.4495  2.4247  0.9949  1.0090
  1.0090  1.0521

[...]

--------------------------------------- Iteration      1(  18)  ---------------------------------------

 eigenvalue-minimisations  : 78240
 total energy-change (2. order) :-0.5871912E-06  (-0.4136052E-09)
 number of electron      32.0000000 magnetization
 augmentation part        0.7996217 magnetization

 Free energy of the ion-electron system (eV)
  alpha Z        PSCENC =        17.23381672
  Ewald energy   TEWEN  =      3505.25084595
  -Hartree energ DENC   =     -4514.54582593
  -exchange      EXHF   =         0.00000000
  -V(xc)+E(xc)   XCENC  =       111.46338567
  PAW double counting   =      3673.75662571    -3679.32824000
  entropy T*S    EENTRO =        -0.00000041
  eigenvalues    EBANDS =      -364.60755184
  atomic energy  EATOM  =      1177.15502788
  Solvation  Ediel_sol  =         0.00000000
  free energy    TOTEN  =       -73.62191625 eV

  energy without entropy =      -73.62191584  energy(sigma->0) =      -73.62191604

 average (electrostatic) potential at core
  the test charge radii are     0.6991
  (the norm of the test charge is              1.0000)
       1 -57.4124       2 -57.4121       3 -57.4125       4 -57.4126       5 -57.4127
       6 -57.4127       7 -57.4122       8 -57.4124

 E-fermi :  -2.0582     XC(G=0):  -2.8859     alpha+bet : -2.6283

 Fermi energy:        -2.0581898135

 k-point     1 :       0.0000    0.0000    0.0000
  band No.  band energies     occupation
      1     -21.9973      2.00000
      2     -16.5110      2.00000
      3     -16.5106      2.00000
      4     -16.5077      2.00000
      5     -15.6269      2.00000
      6     -15.6251      2.00000
      7     -15.6249      2.00000
      8     -10.0346      2.00000
      9      -8.6098      2.00000
     10      -8.6074      2.00000
     11      -8.6072      2.00000
     12      -5.0586      2.00000
     13      -5.0584      2.00000
     14      -4.5232      2.00000
     15      -4.5229      2.00000
     16      -4.5208      2.00000
     17      -0.3569      0.00000
     18      -0.3548      0.00000
     19      -0.3547      0.00000
     20       1.0358      0.00000
     21       1.9475      0.00000
     22       2.5008      0.00000
     23       4.3655      0.00000
     24       5.1408      0.00000
     25       5.8423      0.00000
     26       5.8466      0.00000
     27       5.8467      0.00000
     28       6.6227      0.00000
     29       6.6229      0.00000
     30       8.2806      0.00000
     31       9.1848      0.00000
     32       9.1849      0.00000
     33       9.1851      0.00000
     34       9.3328      0.00000
     35       9.3330      0.00000
     36       9.3331      0.00000
     37       9.3778      0.00000
     38      10.0299      0.00000
     39      10.1150      0.00000
     40      10.1151      0.00000
     41      10.1151      0.00000
     42      10.3175      0.00000
     43      10.3175      0.00000
     44      10.3176      0.00000
     45      10.9437      0.00000
     46      10.9438      0.00000
     47      10.9438      0.00000
     48      10.9675      0.00000
     49      10.9675      0.00000
     50      10.9675      0.00000
     51      11.6603      0.00000
     52      12.2988      0.00000
     53      12.2989      0.00000
     54      12.2989      0.00000
     55      12.7407      0.00000
     56      12.7407      0.00000
     57      12.7407      0.00000
     58      13.3439      0.00000
     59      13.3439      0.00000
     60      13.3442      0.00000
[...]
    466      73.0866      0.00000
    467      73.0868      0.00000
    468      73.0869      0.00000
    469      74.1205      0.00000
    470      74.1205      0.00000
    471      74.1392      0.00000
    472      74.1392      0.00000
    473      74.1425      0.00000
    474      74.1427      0.00000
    475      74.1427      0.00000
    476      74.2796      0.00000
    477      74.2803      0.00000
    478      74.2803      0.00000
    479      74.3450      0.00000
    480      74.3450      0.00000

[...]

 k-point    49 :       0.3529    0.2941    0.0000
  band No.  band energies     occupation
      1     -20.0986      2.00000
      2     -20.0968      2.00000
      3     -19.7481      2.00000
      4     -15.0419      2.00000
      5     -14.5954      2.00000
      6     -12.9435      2.00000
      7     -10.2428      2.00000
      8      -9.7382      2.00000
      9      -9.7362      2.00000
     10      -8.9343      2.00000
     11      -8.4233      2.00000
     12      -8.4214      2.00000
     13      -7.7746      2.00000
     14      -7.7731      2.00000
     15      -7.3670      2.00000
     16      -2.3525      1.99997
     17      -1.7639      0.00003
     18       3.6500      0.00000
     19       3.6501      0.00000
     20       4.1369      0.00000
     21       4.1755      0.00000
     22       4.5687      0.00000
     23       4.5688      0.00000
     24       4.8563      0.00000
     25       4.8583      0.00000
     26       5.0562      0.00000
     27       5.1666      0.00000
     28       5.1666      0.00000
     29       5.6645      0.00000
     30       6.9657      0.00000
     31       6.9658      0.00000
     32       7.4394      0.00000
     33       7.7031      0.00000
     34       7.7036      0.00000
     35       8.1826      0.00000
     36       8.2694      0.00000
     37       8.2718      0.00000
     38       8.6552      0.00000
     39       8.7158      0.00000
     40      10.2783      0.00000
     41      10.2804      0.00000
     42      10.4041      0.00000
     43      10.7339      0.00000
     44      10.7340      0.00000
     45      10.9086      0.00000
     46      11.1323      0.00000
     47      11.3151      0.00000
     48      11.7080      0.00000
     49      11.9826      0.00000
     50      11.9827      0.00000
     51      12.4598      0.00000
     52      12.6723      0.00000
     53      13.0100      0.00000
     54      13.4544      0.00000
     55      13.7691      0.00000
     56      13.8660      0.00000
     57      14.0733      0.00000
     58      14.5495      0.00000
     59      14.7688      0.00000
     60      14.7736      0.00000
[...]
    466      74.0881      0.00000
    467      74.1725      0.00000
    468      74.1726      0.00000
    469      74.6823      0.00000
    470      74.7635      0.00000
    471      74.9318      0.00000
    472      74.9321      0.00000
    473      75.0557      0.00000
    474      75.0641      0.00000
    475      75.0642      0.00000
    476      75.3538      0.00000
    477      75.3801      0.00000
    478      75.4537      0.00000
    479      75.4544      0.00000
    480      75.5492      0.00000

 soft charge-density along one line, spin component           1
         0         1         2         3         4         5         6         7         8         9
 total charge-density along one line

------------------------ aborting loop because EDIFF is reached ----------------------------------------

         DFTD3 V3.0 Rev 1
 IVDW         = 12
 DF pbe
 parameters
 VDW_S6       =    1.0000
 VDW_S8       =    0.7875
 VDW_A1       =    0.4289
 VDW_A2       =    4.4407
 k1-k3        =   16.0000    1.3333   -4.0000
 VDW_RADIUS   =   50.2022 A
 VDW_CNRADIUS =   21.1671 A
 Edisp (eV)   -0.70950

 E6    (eV) :    -0.4879
 E8    (eV) :    -0.2216
 % E8        : 31.23

  FORCE on cell =-STRESS in cart. coord.  units (eV):
  Direction    XX          YY          ZZ          XY          YZ          ZX
  Alpha Z    17.23382    17.23382    17.23382
  Ewald    4599.82984  4599.82493 -5694.40560    -0.00279    -0.00000    -0.00001
  Hartree  4470.77274  4470.77269 -4426.99946    -0.00002    -0.00000    -0.00000
  E(xc)    -120.13512  -120.13512  -124.63106     0.00000     0.00000     0.00000
  Local   -9414.08698 -9414.08477  9703.35186     0.00130     0.00000     0.00000
  n-local   -30.33797   -30.39962   -27.02525     0.08935     0.00000    -0.00000
  augment    -3.34641    -3.34633    -3.02425     0.00001     0.00000     0.00000
  Kinetic   492.38359   488.51037   555.24114    -4.44252     0.00026     0.00056
  Fock        0.00000     0.00000     0.00000     0.00000     0.00000     0.00000
  vdW         0.21785     0.21785    -0.00576     0.00000    -0.00000    -0.00000
  Total      10.56259    10.56259    -0.26456     0.00000     0.00000     0.00000
  in kB      55.47437    55.47437    -1.38947     0.00000     0.00000     0.00000

 VOLUME and BASIS-vectors are now :
  energy-cutoff  :      450.00
  volume of cell :      305.06
      direct lattice vectors                 reciprocal lattice vectors
     4.196759107  2.423000000  0.000000000     0.119139552  0.206355757  0.000000000
    -4.196759107  2.423000000  0.000000000    -0.119139552  0.206355757  0.000000000
     0.000000000  0.000000000 15.000000000     0.000000000  0.000000000  0.066666667

  length of vectors
     4.846000000  4.846000000 15.000000000     0.238279104  0.238279104  0.066666667

 FORCES acting on ions
    electron-ion (+dipol)            ewald-force                    non-local-force                 convergence-correction
   0.707E-01 0.352E-01 -.466E-01   -.759E-01 -.394E-01 0.483E-01   -.308E-02 0.674E-03 -.183E-02   -.103E-04 -.308E-05 -.463E-05
   -.746E-01 0.485E-01 -.307E+00   0.862E-01 -.556E-01 0.316E+00   0.637E-02 -.426E-02 -.140E-01   0.103E-04 -.309E-05 0.121E-06
   0.761E-04 -.167E-04 0.370E+00   -.305E-02 0.665E-03 -.380E+00   0.104E-16 -.593E-17 0.237E-01   -.210E-07 0.156E-07 -.383E-06
   0.815E-01 0.415E-01 -.357E+00   -.894E-01 -.456E-01 0.350E+00   -.687E-02 -.339E-02 -.140E-01   -.782E-05 -.739E-05 0.113E-06
   -.650E-01 0.410E-01 -.826E-01   0.708E-01 -.511E-01 0.731E-01   0.959E-03 -.301E-02 -.183E-02   0.782E-05 -.742E-05 -.463E-05
   0.188E-02 -.272E-03 0.756E+00   0.274E-02 -.143E-02 -.762E+00   -.142E-16 -.101E-16 0.242E-01   0.226E-07 -.137E-07 -.143E-04
   -.291E-02 -.776E-01 -.252E-01   0.607E-02 0.875E-01 0.357E-01   0.213E-02 0.233E-02 -.183E-02   0.251E-05 0.105E-04 -.462E-05
   -.392E-02 -.889E-01 -.308E+00   0.255E-02 0.105E+00 0.318E+00   0.504E-03 0.764E-02 -.140E-01   -.253E-05 0.105E-04 0.125E-06
   0.782E-02 -.588E-03 0.472E-04   0.120E-13 0.207E-13 -.111E-15   0.338E-16 0.347E-17 0.495E-03   -.148E-09 0.214E-09 -.282E-04

 POSITION                                       TOTAL-FORCE (eV/Angst)
     -2.09809      1.21197      5.02673        -0.012144     -0.001514     -0.000978
     -0.69947      1.21207      5.02725         0.017760     -0.010707     -0.009710
      0.00019      0.00045      5.02614        -0.000000      0.000000      0.013909
     -2.79746      2.42355      5.02731        -0.018152     -0.010027     -0.009710
      0.00011      2.42355      5.02677         0.007383     -0.009760     -0.000978
      1.39910      2.42345      5.02520         0.000000      0.000000      0.018153
      2.09852      1.21184      5.02671         0.004761      0.011274     -0.000978
     -0.69929      3.63472      5.02725         0.000392      0.020734     -0.009710
    total drift:                                0.007819     -0.000588      0.000514

  FREE ENERGIE OF THE ION-ELECTRON SYSTEM (eV)
  free  energy   TOTEN  =       -74.33141706 eV

  energy  without entropy=      -74.33141665  energy(sigma->0) =      -74.33141685

 stress matrix after NEB project (eV)
     10.56259     -0.00000      0.00000
      0.00000     10.56259     -0.00000
      0.00000      0.00000     -0.26456
  FORCES: max atom, RMS     0.022898    0.017847
  FORCE total and by dimension    0.050479    0.020734
  Stress total and by dimension   14.940104   10.562592
 writing wavefunctions