 vasp.6.4.2 20Jul23 (build Aug 23 2023 19:13:21) complex

 executed on             LinuxIFC date 2024.05.02  18:11:14

 INCAR:
   SYSTEM = SC
   ISTART = 0
   ICHARG = 2
   PREC = Accurate
   ENCUT = 450
   LCHARG = .TRUE.
   LWAVE = .TRUE.
   ALGO = Normal
   NELM = 64
   EDIFF = 1E-6
   EDIFFG = -1E-3
   SIGMA = 0.1
   ISMEAR = 0
   IBRION = -1
   GGA = PE
   IVDW = 12

 POTCAR:    PAW_PBE B 06Sep2000
 POTCAR:    PAW_PBE C 08Apr2002
 POTCAR:    PAW_PBE B 06Sep2000
   VRHFIN =B: s2p1

   TITEL  = PAW_PBE B 06Sep2000
   POMASS =   10.811; ZVAL   =    3.000    mass and valenz
   ENMAX  =  318.614; ENMIN  =  238.960 eV

   TITEL  = PAW_PBE C 08Apr2002
   POMASS =   12.011; ZVAL   =    4.000    mass and valenz
   ENMAX  =  400.000; ENMIN  =  300.000 eV

  PAW_PBE B 06Sep2000                   :
  PAW_PBE C 08Apr2002                   :

 POSCAR: Graphene-BC3 Hollow with lattice paramet
  positions in direct lattice
 exchange correlation table for  LEXCH =        8
   RHO(1)=    0.500       N(1)  =     2000
   RHO(2)=  100.500       N(2)  =     4000

 VTST: version 4.1, (05/19/21)

 CHAIN: initializing optimizer

 OPT: Using VASP Dynamics algorithm
 CHAIN: Read ICHAIN            0

 POSCAR: Graphene-BC3 Hollow with lattice paramet
  positions in direct lattice

 ion  position               nearest neighbor table
   1  0.338  0.669  0.113-   7 1.52   5 1.52   3 1.52
   2  0.672  0.336  0.113-   8 1.52   6 1.52   4 1.52
   3  0.164  0.322  0.113-   4 1.39   6 1.39   1 1.52
   4  0.324  0.162  0.113-   5 1.39   3 1.39   2 1.52
   5  0.164  0.843  0.113-   4 1.39   8 1.39   1 1.52
   6  0.845  0.162  0.113-   7 1.39   3 1.39   2 1.52
   7  0.686  0.843  0.113-   6 1.39   8 1.39   1 1.52
   8  0.845  0.683  0.113-   7 1.39   5 1.39   2 1.52

  LATTYP: Found a hexagonal cell.
 ALAT       =     5.0440000000
 C/A-ratio  =     2.9738302934

  Lattice vectors:

 A1 = (   4.3682321367,   2.5220000000,   0.0000000000)
 A2 = (  -4.3682321367,   2.5220000000,   0.0000000000)
 A3 = (   0.0000000000,   0.0000000000,  15.0000000000)

Analysis of symmetry for initial positions (statically):
 Subroutine PRICEL returns:
 Original cell was already a primitive cell.

 Routine SETGRP: Setting up the symmetry group for a
 hexagonal supercell.

 Subroutine GETGRP returns: Found  6 space group operations
 (whereof  1 operations were pure point group operations)
 out of a pool of 24 trial point group operations.

The static configuration has the point symmetry C_1 .
 The point group associated with its full space group is C_3v.

Analysis of symmetry for dynamics (positions and initial velocities):
 Subroutine PRICEL returns:
 Original cell was already a primitive cell.

 Routine SETGRP: Setting up the symmetry group for a
 hexagonal supercell.

 Subroutine GETGRP returns: Found  6 space group operations
 (whereof  1 operations were pure point group operations)
 out of a pool of 24 trial point group operations.

The dynamic configuration has the point symmetry C_1 .
 The point group associated with its full space group is C_3v.

 Subroutine INISYM returns: Found  6 space group operations
 (whereof  1 operations are pure point group operations),
 and found     1 'primitive' translations

                                     Primitive cell

  volume of cell :     330.5004

  direct lattice vectors                    reciprocal lattice vectors
     4.368232137  2.522000000  0.000000000     0.114462781  0.198255353  0.000000000
    -4.368232137  2.522000000  0.000000000    -0.114462781  0.198255353  0.000000000
     0.000000000  0.000000000 15.000000000     0.000000000  0.000000000  0.066666667

  length of vectors
     5.044000000  5.044000000 15.000000000     0.228925563  0.228925563  0.066666667

  position of ions in fractional coordinates (direct lattice)
     0.338203334  0.669098661  0.113381622
     0.671538623  0.335766770  0.113066104
     0.164492162  0.321676120  0.113073872
     0.324038669  0.162015918  0.113080124
     0.164492146  0.842809624  0.113074202
     0.845282693  0.162014532  0.113070458
     0.685620398  0.842806916  0.113065505
     0.845283256  0.683261954  0.113070868

  ion indices of the primitive-cell ions
   primitive index   ion index
                 1           1
                 2           2
                 3           3
                 4           4
                 5           5
                 6           6
                 7           7
                 8           8

 KPOINTS: k-points

Automatic generation of k-mesh.
 Grid dimensions read from file:
 generate k-points for:   17   17    1

 Generating k-lattice:

  Cartesian coordinates                     Fractional coordinates (reciprocal lattice)
     0.006733105  0.011662080  0.000000000     0.058823529  0.000000000  0.000000000
    -0.006733105  0.011662080  0.000000000     0.000000000  0.058823529  0.000000000
     0.000000000  0.000000000  0.066666667     0.000000000  0.000000000  1.000000000

  Length of vectors
     0.013466210  0.013466210  0.066666667

  Shift w.r.t. Gamma in fractional coordinates (k-lattice)
     0.000000000  0.000000000  0.000000000

 Subroutine IBZKPT returns following result:

 Found     33 irreducible k-points:

 Following reciprocal coordinates:
            Coordinates               Weight
  0.000000  0.000000  0.000000      1.000000
  0.058824 -0.000000  0.000000      6.000000
  0.117647 -0.000000  0.000000      6.000000
  0.176471 -0.000000  0.000000      6.000000
  0.235294 -0.000000  0.000000      6.000000
  0.294118 -0.000000  0.000000      6.000000
  0.352941  0.000000  0.000000      6.000000
  0.411765 -0.000000  0.000000      6.000000
  0.470588 -0.000000  0.000000      6.000000
  0.058824  0.058824  0.000000      6.000000
  0.117647  0.058824  0.000000     12.000000
  0.176471  0.058824  0.000000     12.000000
  0.235294  0.058824  0.000000     12.000000
  0.294118  0.058824  0.000000     12.000000
  0.352941  0.058824  0.000000     12.000000
  0.411765  0.058824  0.000000     12.000000
  0.470588  0.058824  0.000000      6.000000
  0.117647  0.117647  0.000000      6.000000
  0.176471  0.117647  0.000000     12.000000
  0.235294  0.117647  0.000000     12.000000
  0.294118  0.117647  0.000000     12.000000
  0.352941  0.117647  0.000000     12.000000
  0.411765  0.117647  0.000000     12.000000
  0.176471  0.176471  0.000000      6.000000
  0.235294  0.176471  0.000000     12.000000
  0.294118  0.176471  0.000000     12.000000
  0.352941  0.176471  0.000000     12.000000
  0.411765  0.176471  0.000000      6.000000
  0.235294  0.235294  0.000000      6.000000
  0.294118  0.235294  0.000000     12.000000
  0.352941  0.235294  0.000000     12.000000
  0.294118  0.294118  0.000000      6.000000
  0.352941  0.294118  0.000000      6.000000

 Following cartesian coordinates:
            Coordinates               Weight
  0.000000  0.000000  0.000000      1.000000
  0.006733  0.011662  0.000000      6.000000
  0.013466  0.023324  0.000000      6.000000
  0.020199  0.034986  0.000000      6.000000
  0.026932  0.046648  0.000000      6.000000
  0.033666  0.058310  0.000000      6.000000
  0.040399  0.069972  0.000000      6.000000
  0.047132  0.081635  0.000000      6.000000
  0.053865  0.093297  0.000000      6.000000
 -0.000000  0.023324  0.000000      6.000000
  0.006733  0.034986  0.000000     12.000000
  0.013466  0.046648  0.000000     12.000000
  0.020199  0.058310  0.000000     12.000000
  0.026932  0.069972  0.000000     12.000000
  0.033666  0.081635  0.000000     12.000000
  0.040399  0.093297  0.000000     12.000000
  0.047132  0.104959  0.000000      6.000000
 -0.000000  0.046648  0.000000      6.000000
  0.006733  0.058310  0.000000     12.000000
  0.013466  0.069972  0.000000     12.000000
  0.020199  0.081635  0.000000     12.000000
  0.026932  0.093297  0.000000     12.000000
  0.033666  0.104959  0.000000     12.000000
  0.000000  0.069972  0.000000      6.000000
  0.006733  0.081635  0.000000     12.000000
  0.013466  0.093297  0.000000     12.000000
  0.020199  0.104959  0.000000     12.000000
  0.026932  0.116621  0.000000      6.000000
 -0.000000  0.093297  0.000000      6.000000
  0.006733  0.104959  0.000000     12.000000
  0.013466  0.116621  0.000000     12.000000
 -0.000000  0.116621  0.000000      6.000000
  0.006733  0.128283  0.000000      6.000000

 SYSTEM =  SC
 POSCAR =  Graphene-BC3 Hollow with lattice paramet

 Startparameter for this run:
   NWRITE =      2    write-flag & timer
   PREC   = accura    normal or accurate (medium, high low for compatibility)
   ISTART =      0    job   : 0-new  1-cont  2-samecut
   ICHARG =      2    charge: 1-file 2-atom 10-const
   ISPIN  =      1    spin polarized calculation?
   LNONCOLLINEAR =      F non collinear calculations
   LSORBIT =      F    spin-orbit coupling
   INIWAV =      1    electr: 0-lowe 1-rand  2-diag
   LASPH  =      F    aspherical Exc in radial PAW
 Electronic Relaxation 1
   ENCUT  =  450.0 eV  33.07 Ry    5.75 a.u.   8.72  8.72 25.95*2*pi/ulx,y,z
   ENINI  =  450.0     initial cutoff
   ENAUG  =  644.9 eV  augmentation charge cutoff
   NELM   =     64;   NELMIN=  2; NELMDL= -5     # of ELM steps
   EDIFF  = 0.1E-05   stopping-criterion for ELM
   LREAL  =      F    real-space projection
   NLSPLINE    = F    spline interpolate recip. space projectors
   LCOMPAT=      F    compatible to vasp.4.4
   GGA_COMPAT  = T    GGA compatible to vasp.4.4-vasp.4.6
   LMAXPAW     = -100 max onsite density
   LMAXMIX     =    2 max onsite mixed and CHGCAR
   VOSKOWN=      0    Vosko Wilk Nusair interpolation
   ROPT   =    0.00000   0.00000
 Ionic relaxation
   EDIFFG = -.1E-02   stopping-criterion for IOM
   NSW    =      0    number of steps for IOM
   NBLOCK =      1;   KBLOCK =      1    inner block; outer block
   IBRION =     -1    ionic relax: 0-MD 1-quasi-New 2-CG
   NFREE  =      0    steps in history (QN), initial steepest desc. (CG)
   ISIF   =      2    stress and relaxation
   IWAVPR =     10    prediction:  0-non 1-charg 2-wave 3-comb
   ISYM   =      2    0-nonsym 1-usesym 2-fastsym
   LCORR  =      T    Harris-Foulkes like correction to forces

   POTIM  = 0.5000    time-step for ionic-motion
   TEIN   =    0.0    initial temperature
   TEBEG  =    0.0;   TEEND  =   0.0 temperature during run
   SMASS  =  -3.00    Nose mass-parameter (am)
   estimated Nose-frequenzy (Omega)   =  0.10E-29 period in steps = 0.13E+47 mass=  -0.581E-27a.u.
   SCALEE = 1.0000    scale energy and forces
   NPACO  =    256;   APACO  = 10.0  distance and # of slots for P.C.
   PSTRESS=    0.0 pullay stress

  Mass of Ions in am
   POMASS =  10.81 12.01
  Ionic Valenz
   ZVAL   =   3.00  4.00
  Atomic Wigner-Seitz radii
  virtual crystal weights
   VCA    =   1.00  1.00
   NELECT =      30.0000    total number of electrons
   NUPDOWN=      -1.0000    fix difference up-down

 DOS related values:
   EMIN   =  10.00;   EMAX   =-10.00  energy-range for DOS
   EFERMI =   0.00;   METHOD = LEGACY
   ISMEAR =     0;   SIGMA  =   0.10  broadening in eV -4-tet -1-fermi 0-gaus

 Electronic relaxation 2 (details)
   IALGO  =     38    algorithm
   LDIAG  =      T    sub-space diagonalisation (order eigenvalues)
[...]
   0.70774666  3.85499102  1.69606302

 k-point   1 :   0.0000 0.0000 0.0000  plane waves:    7149
 k-point   2 :   0.0588-0.0000 0.0000  plane waves:    7163
 k-point   3 :   0.1176-0.0000 0.0000  plane waves:    7169
 k-point   4 :   0.1765-0.0000 0.0000  plane waves:    7181
 k-point   5 :   0.2353-0.0000 0.0000  plane waves:    7185
 k-point   6 :   0.2941-0.0000 0.0000  plane waves:    7175
 k-point   7 :   0.3529 0.0000 0.0000  plane waves:    7165
 k-point   8 :   0.4118-0.0000 0.0000  plane waves:    7179
 k-point   9 :   0.4706-0.0000 0.0000  plane waves:    7186
 k-point  10 :   0.0588 0.0588 0.0000  plane waves:    7155
 k-point  11 :   0.1176 0.0588 0.0000  plane waves:    7169
 k-point  12 :   0.1765 0.0588 0.0000  plane waves:    7177
 k-point  13 :   0.2353 0.0588 0.0000  plane waves:    7168
 k-point  14 :   0.2941 0.0588 0.0000  plane waves:    7162
 k-point  15 :   0.3529 0.0588 0.0000  plane waves:    7157
 k-point  16 :   0.4118 0.0588 0.0000  plane waves:    7174
 k-point  17 :   0.4706 0.0588 0.0000  plane waves:    7182
 k-point  18 :   0.1176 0.1176 0.0000  plane waves:    7165
 k-point  19 :   0.1765 0.1176 0.0000  plane waves:    7165
 k-point  20 :   0.2353 0.1176 0.0000  plane waves:    7173
 k-point  21 :   0.2941 0.1176 0.0000  plane waves:    7161
 k-point  22 :   0.3529 0.1176 0.0000  plane waves:    7171
 k-point  23 :   0.4118 0.1176 0.0000  plane waves:    7170
 k-point  24 :   0.1765 0.1765 0.0000  plane waves:    7151
 k-point  25 :   0.2353 0.1765 0.0000  plane waves:    7144
 k-point  26 :   0.2941 0.1765 0.0000  plane waves:    7168
 k-point  27 :   0.3529 0.1765 0.0000  plane waves:    7144
 k-point  28 :   0.4118 0.1765 0.0000  plane waves:    7164
 k-point  29 :   0.2353 0.2353 0.0000  plane waves:    7161
 k-point  30 :   0.2941 0.2353 0.0000  plane waves:    7139
 k-point  31 :   0.3529 0.2353 0.0000  plane waves:    7142
 k-point  32 :   0.2941 0.2941 0.0000  plane waves:    7129
 k-point  33 :   0.3529 0.2941 0.0000  plane waves:    7129

 maximum and minimum number of plane-waves per node :      7186     7129

 maximum number of plane-waves:      7186
 maximum index in each direction:
   IXMAX=    8   IYMAX=    8   IZMAX=   25
   IXMIN=   -9   IYMIN=   -9   IZMIN=  -25

 serial   3D FFT for wavefunctions
 parallel 3D FFT for charge:
    minimum data exchange during FFTs selected (reduces bandwidth)

 Broyden mixing: mesh for mixing (old mesh)
   NGX = 17   NGY = 17   NGZ = 51
  (NGX  = 72   NGY  = 72   NGZ  =216)
  gives a total of  14739 points

 initial charge density was supplied:
 charge density of overlapping atoms calculated
 number of electron      30.0000000 magnetization
 keeping initial charge density in first step

 Maximum index for augmentation-charges           20 (set IRDMAX)

 First call to EWALD:  gamma=   0.256
 Maximum number of real-space cells 4x 4x 2
 Maximum number of reciprocal cells 2x 2x 5

--------------------------------------- Ionic step        1  -------------------------------------------

--------------------------------------- Iteration      1(   1)  ---------------------------------------

 eigenvalue-minimisations  : 40320
 total energy-change (2. order) :-0.6595006E+02  (-0.1417981E+04)
 number of electron      30.0000000 magnetization
 augmentation part       30.0000000 magnetization

 Free energy of the ion-electron system (eV)
  alpha Z        PSCENC =        15.34794963
  Ewald energy   TEWEN  =      2777.20026719
  -Hartree energ DENC   =     -3522.41548869
  -exchange      EXHF   =         0.00000000
  -V(xc)+E(xc)   XCENC  =        92.29971866
  PAW double counting   =       738.13200929     -739.83780425
  entropy T*S    EENTRO =        -0.00000000
  eigenvalues    EBANDS =      -451.88061270
  atomic energy  EATOM  =      1025.20389953
  Solvation  Ediel_sol  =         0.00000000
  free energy    TOTEN  =       -65.95006134 eV

  energy without entropy =      -65.95006134  energy(sigma->0) =      -65.95006134

[...]

 eigenvalue-minimisations  : 31680
 total energy-change (2. order) :-0.1818989E-11  ( 0.5302886E-12)
 number of electron      30.0000000 magnetization
 augmentation part        0.6233225 magnetization

 Broyden mixing:
  rms(total) = 0.14174E+01    rms(broyden)= 0.14170E+01
  rms(prec ) = 0.16161E+01
  weight for this iteration     100.00

[...]

 eigenvalue-minimisations  : 61440
 total energy-change (2. order) : 0.5289576E+01  (-0.6543868E+00)
 number of electron      30.0000000 magnetization
 augmentation part        0.5724324 magnetization

[...]

 eigenvalues of (default mixing * dielectric matrix)
  average eigenvalue GAMMA=   1.9709
  1.9709

[...]

 eigenvalue-minimisations  : 59520
 total energy-change (2. order) : 0.2514082E-02  (-0.3453613E-03)
 number of electron      30.0000000 magnetization
 augmentation part        0.5281943 magnetization

[...]

 Broyden mixing:
  rms(total) = 0.67521E-05    rms(broyden)= 0.67102E-05
  rms(prec ) = 0.82237E-05
  weight for this iteration     100.00

 eigenvalues of (default mixing * dielectric matrix)
  average eigenvalue GAMMA=   2.8205
  9.5690  5.9123  3.9011  3.0096  2.6879  2.4366  2.0993  1.7916  1.1866  0.9693
  0.9996  1.0231  1.0799

[...]

--------------------------------------- Iteration      1(  19)  ---------------------------------------

 eigenvalue-minimisations  : 49440
 total energy-change (2. order) :-0.1764379E-06  (-0.2124634E-09)
 number of electron      30.0000000 magnetization
 augmentation part        0.5280503 magnetization

 Free energy of the ion-electron system (eV)
  alpha Z        PSCENC =        15.34794963
  Ewald energy   TEWEN  =      2777.20026719
  -Hartree energ DENC   =     -3674.56557716
  -exchange      EXHF   =         0.00000000
  -V(xc)+E(xc)   XCENC  =        97.57998916
  PAW double counting   =      3239.82351495    -3242.50131657
  entropy T*S    EENTRO =        -0.00002894
  eigenvalues    EBANDS =      -305.00438361
  atomic energy  EATOM  =      1025.20389953
  Solvation  Ediel_sol  =         0.00000000
  free energy    TOTEN  =       -66.91568582 eV

  energy without entropy =      -66.91565688  energy(sigma->0) =      -66.91567135

 average (electrostatic) potential at core
  the test charge radii are     0.7672  0.6991
  (the norm of the test charge is              1.0000)
       1 -34.0582       2 -34.0586       3 -56.7378       4 -56.7383       5 -56.7380
       6 -56.7382       7 -56.7386       8 -56.7384

 E-fermi :  -3.2921     XC(G=0):  -2.8232     alpha+bet : -2.4911

 Fermi energy:        -3.2921267918

 k-point     1 :       0.0000    0.0000    0.0000
  band No.  band energies     occupation
      1     -20.1301      2.00000
      2     -15.9557      2.00000
      3     -15.9554      2.00000
      4     -13.7928      2.00000
      5     -13.7926      2.00000
      6     -12.7510      2.00000
      7     -11.1799      2.00000
      8      -8.8865      2.00000
      9      -8.3755      2.00000
     10      -6.2004      2.00000
     11      -6.2003      2.00000
     12      -4.3772      2.00000
     13      -4.3770      2.00000
     14      -3.4878      1.99435
     15      -3.4878      1.99434
     16      -1.8229      0.00000
     17       0.0057      0.00000
     18       0.0057      0.00000
     19       0.7278      0.00000
     20       0.8785      0.00000
     21       1.9148      0.00000
     22       2.2864      0.00000
     23       4.2769      0.00000
     24       4.9223      0.00000
     25       5.8261      0.00000
     26       5.8262      0.00000
     27       7.2414      0.00000
     28       7.4720      0.00000
     29       7.4721      0.00000
     30       8.1829      0.00000
     31       8.3837      0.00000
     32       8.4547      0.00000
     33       8.4547      0.00000
     34       8.6096      0.00000
     35       8.6096      0.00000
     36       8.7885      0.00000
     37       9.2034      0.00000
     38       9.2035      0.00000
     39       9.4197      0.00000
     40       9.4198      0.00000
     41       9.4224      0.00000
     42       9.4555      0.00000
     43       9.6227      0.00000
     44      10.0329      0.00000
     45      10.0783      0.00000
     46      10.0785      0.00000
     47      10.1099      0.00000
     48      10.1112      0.00000
     49      10.1735      0.00000
     50      10.3883      0.00000
     51      11.3903      0.00000
     52      11.3914      0.00000
     53      11.8381      0.00000
     54      11.8416      0.00000
     55      11.8680      0.00000
     56      11.8681      0.00000
     57      12.1642      0.00000
     58      12.5569      0.00000
     59      12.5570      0.00000
     60      12.6185      0.00000
[...]
    466      69.5794      0.00000
    467      69.6915      0.00000
    468      69.8033      0.00000
    469      69.8557      0.00000
    470      69.8557      0.00000
    471      69.8558      0.00000
    472      69.9726      0.00000
    473      69.9955      0.00000
    474      69.9964      0.00000
    475      70.1146      0.00000
    476      70.1148      0.00000
    477      70.4735      0.00000
    478      70.5167      0.00000
    479      70.5168      0.00000
    480      70.5422      0.00000

[...]

 k-point    33 :       0.3529    0.2941    0.0000
  band No.  band energies     occupation
      1     -19.3977      2.00000
      2     -17.5186      2.00000
      3     -17.3466      2.00000
      4     -12.9741      2.00000
      5     -12.6452      2.00000
      6     -11.0717      2.00000
      7      -8.4251      2.00000
      8      -8.1829      2.00000
      9      -7.8209      2.00000
     10      -7.4619      2.00000
     11      -7.0365      2.00000
     12      -6.3439      2.00000
     13      -6.2594      2.00000
     14      -6.0845      2.00000
     15      -5.9468      2.00000
     16      -1.3914      0.00000
     17      -0.8833      0.00000
     18       3.2992      0.00000
     19       3.3183      0.00000
     20       3.7599      0.00000
     21       4.0156      0.00000
     22       4.1273      0.00000
     23       4.5186      0.00000
     24       4.7478      0.00000
     25       4.7520      0.00000
     26       4.7600      0.00000
     27       5.2093      0.00000
     28       5.2812      0.00000
     29       5.5069      0.00000
     30       6.6094      0.00000
     31       6.7925      0.00000
     32       7.1455      0.00000
     33       7.3449      0.00000
     34       7.3686      0.00000
     35       7.8050      0.00000
     36       8.1084      0.00000
     37       8.1560      0.00000
     38       8.7223      0.00000
     39       8.7609      0.00000
     40      10.2057      0.00000
     41      10.3714      0.00000
     42      10.3982      0.00000
     43      10.5198      0.00000
     44      10.7052      0.00000
     45      10.8089      0.00000
     46      10.9083      0.00000
     47      11.2629      0.00000
     48      11.2926      0.00000
     49      11.6760      0.00000
     50      11.6773      0.00000
     51      11.8565      0.00000
     52      12.0285      0.00000
     53      12.2149      0.00000
     54      12.3757      0.00000
     55      12.8134      0.00000
     56      12.8962      0.00000
     57      12.9801      0.00000
     58      13.9194      0.00000
     59      13.9718      0.00000
     60      14.1432      0.00000
[...]
    466      70.2621      0.00000
    467      70.4105      0.00000
    468      70.4236      0.00000
    469      70.4655      0.00000
    470      70.6466      0.00000
    471      70.6751      0.00000
    472      71.0691      0.00000
    473      71.1458      0.00000
    474      71.2842      0.00000
    475      71.3497      0.00000
    476      71.4033      0.00000
    477      71.4524      0.00000
    478      71.6584      0.00000
    479      71.6622      0.00000
    480      71.6643      0.00000

 soft charge-density along one line, spin component           1
         0         1         2         3         4         5         6         7         8         9
 total charge-density along one line

------------------------ aborting loop because EDIFF is reached ----------------------------------------

         DFTD3 V3.0 Rev 1
 IVDW         = 12
 DF pbe
 parameters
 VDW_S6       =    1.0000
 VDW_S8       =    0.7875
 VDW_A1       =    0.4289
 VDW_A2       =    4.4407
 k1-k3        =   16.0000    1.3333   -4.0000
 VDW_RADIUS   =   50.2022 A
 VDW_CNRADIUS =   21.1671 A
 Edisp (eV)   -0.70298

 E6    (eV) :    -0.4750
 E8    (eV) :    -0.2280
 % E8        : 32.44

  FORCE on cell =-STRESS in cart. coord.  units (eV):
  Direction    XX          YY          ZZ          XY          YZ          ZX
  Alpha Z    15.34795    15.34795    15.34795
  Ewald    3698.41419  3698.41409 -4619.62924    -0.00119     0.01238     0.00775
  Hartree  3619.39007  3619.39008 -3564.21446     0.00001     0.00018     0.00011
  E(xc)    -109.06233  -109.06233  -112.92454     0.00000    -0.00000    -0.00000
  Local   -7631.99627 -7631.99651  7843.19462     0.00036    -0.00859    -0.00538
  n-local   -24.17324   -23.71324   -11.53232     0.22674     0.00073     0.00069
  augment    -2.01798    -2.01784    -1.95058     0.00006    -0.00004    -0.00002
  Kinetic   449.45368   442.92734   451.53024    -4.50466    -0.00586    -0.00661
  Fock        0.00000     0.00000     0.00000     0.00000     0.00000     0.00000
  vdW        -0.42426    -0.42426    -0.00611    -0.00000     0.00001     0.00000
  Total      11.89854    11.89854    -0.18443     0.00000    -0.00000    -0.00000
  in kB      57.68093    57.68093    -0.89407     0.00000    -0.00000    -0.00000

 VOLUME and BASIS-vectors are now :
  energy-cutoff  :      450.00
  volume of cell :      330.50
      direct lattice vectors                 reciprocal lattice vectors
     4.368232137  2.522000000  0.000000000     0.114462781  0.198255353  0.000000000
    -4.368232137  2.522000000  0.000000000    -0.114462781  0.198255353  0.000000000
     0.000000000  0.000000000 15.000000000     0.000000000  0.000000000  0.066666667

  length of vectors
     5.044000000  5.044000000 15.000000000     0.228925563  0.228925563  0.066666667

 FORCES acting on ions
    electron-ion (+dipol)            ewald-force                    non-local-force                 convergence-correction
   -.404E-04 0.829E-06 -.140E+01   -.134E-02 -.275E-02 0.131E+01   0.191E-16 0.301E-17 0.339E-01   -.603E-08 -.155E-07 0.221E-05
   -.988E-04 -.157E-03 0.130E+00   -.192E-03 -.109E-02 -.115E+00   -.138E-16 -.804E-17 -.593E-02   0.469E-08 0.524E-08 -.982E-07
   0.250E+02 -.432E+02 0.255E+00   -.271E+02 0.469E+02 -.271E+00   0.212E+01 -.368E+01 0.171E-01   0.151E-05 -.262E-05 0.407E-05
   -.250E+02 -.432E+02 0.480E-01   0.271E+02 0.469E+02 -.785E-01   -.211E+01 -.366E+01 -.140E-01   0.683E-06 0.120E-05 0.200E-05
   -.499E+02 0.881E-03 0.251E+00   0.541E+02 -.207E-02 -.269E+00   -.424E+01 0.219E-16 0.171E-01   -.303E-05 -.614E-08 0.407E-05
   0.499E+02 0.295E-02 0.163E+00   -.541E+02 0.173E-02 -.132E+00   0.423E+01 -.291E-16 -.140E-01   -.139E-05 0.278E-07 0.209E-05
   0.250E+02 0.432E+02 0.354E+00   -.271E+02 -.469E+02 -.316E+00   0.212E+01 0.368E+01 0.171E-01   0.151E-05 0.262E-05 0.416E-05
   -.250E+02 0.432E+02 0.159E+00   0.271E+02 -.469E+02 -.130E+00   -.211E+01 0.366E+01 -.140E-01   0.717E-06 -.120E-05 0.208E-05
   0.575E-02 0.162E-01 -.373E-01   0.711E-14 0.142E-13 -.555E-16   0.000E+00 0.444E-15 0.372E-01   0.104E-08 0.932E-08 0.206E-04

 POSITION                                       TOTAL-FORCE (eV/Angst)
     -1.44543      2.54042      1.70072         0.000000      0.000000     -0.052053
      1.46673      2.54042      1.69599         0.000000      0.000000      0.009651
     -0.68662      1.22612      1.69611         0.017356     -0.030061      0.018518
      0.70775      1.22583      1.69620        -0.005723     -0.009913     -0.004383
     -2.96305      2.54042      1.69611        -0.034711      0.000000      0.018518
      2.98467      2.54040      1.69606         0.011446      0.000000     -0.004383
     -0.68663      3.85469      1.69598         0.017356      0.030061      0.018518
      0.70775      3.85499      1.69606        -0.005723      0.009913     -0.004383
    total drift:                                0.005749      0.016236     -0.000052

  FREE ENERGIE OF THE ION-ELECTRON SYSTEM (eV)
  free  energy   TOTEN  =       -67.61867045 eV

  energy  without entropy=      -67.61864151  energy(sigma->0) =      -67.61865598

 stress matrix after NEB project (eV)
     11.89854      0.00000     -0.00000
      0.00000     11.89854      0.00000
     -0.00000     -0.00000     -0.18443
  FORCES: max atom, RMS     0.052053    0.031418
  FORCE total and by dimension    0.088864    0.052053
  Stress total and by dimension   16.828090   11.898542
 writing wavefunctions