 vasp.6.4.2 20Jul23 (build Aug 23 2023 19:13:21) complex

 executed on             LinuxIFC date 2023.10.04  14:41:56

 INCAR:
   SYSTEM = Relaxation_HSE06
   ISTART = 1
   ICHARG = 2
   PREC = Accurate
   LORBIT = 11
   ENCUT = 450
   LWAVE = .TRUE.
   ALGO = Damped
   NELM = 64
   EDIFF = 1E-6
   EDIFFG = -1E-3
   SIGMA = 0.1
   ISMEAR = 0
   NSW = 64
   IBRION = 2
   POTIM = .5
   ISIF = 3
   GGA = PE
   LHFCALC = .TRUE.
   AEXX = 0.25
   HFSCREEN = 0.2
   NKRED = 1
   ISYM = 0
   NPAR = 8
   KPAR = 2

 POTCAR:    PAW_PBE B 06Sep2000
 POTCAR:    PAW_PBE C 08Apr2002
 POTCAR:    PAW_PBE B 06Sep2000
   VRHFIN =B: s2p1

   TITEL  = PAW_PBE B 06Sep2000
   POMASS =   10.811; ZVAL   =    3.000    mass and valenz
   ENMAX  =  318.614; ENMIN  =  238.960 eV

   TITEL  = PAW_PBE C 08Apr2002
   POMASS =   12.011; ZVAL   =    4.000    mass and valenz
   ENMAX  =  400.000; ENMIN  =  300.000 eV

  PAW_PBE B 06Sep2000                   :
  PAW_PBE C 08Apr2002                   :

 POSCAR: B4C3 with lattice parameter 4.690
  positions in direct lattice
  velocities in cartesian coordinates
 exchange correlation table for  LEXCH =        8
   RHO(1)=    0.500       N(1)  =     2000
   RHO(2)=  100.500       N(2)  =     4000

 VTST: version 4.1, (05/19/21)

 CHAIN: initializing optimizer

 OPT: Using VASP Conjugate-Gradient optimizer
 CHAIN: Read ICHAIN            0

 POSCAR: B4C3 with lattice parameter 4.690
  positions in direct lattice
  velocities in cartesian coordinates

 ion  position               nearest neighbor table
   1  0.004  0.003  0.120-   7 1.55   6 1.55   5 1.55   4 1.69   2 1.69   3 1.69
   2  0.357  0.003  0.098-   6 1.52   5 1.59   7 1.59   1 1.69
   3  0.004  0.356  0.098-   7 1.52   5 1.59   6 1.59   1 1.69
   4  0.651  0.650  0.098-   5 1.52   6 1.59   7 1.59   1 1.69
   5  0.328  0.327  0.100-   4 1.52   1 1.55   3 1.59   2 1.59
   6  0.680  0.003  0.100-   2 1.52   1 1.55   3 1.59   4 1.59
   7  0.004  0.679  0.100-   3 1.52   1 1.55   2 1.59   4 1.59

IMPORTANT INFORMATION: All symmetrisations will be switched off!
NOSYMM: (Re-)initialisation of all symmetry stuff for point group C_1.

                                     Primitive cell

  volume of cell :     285.7377

  direct lattice vectors                    reciprocal lattice vectors
     4.061659000  2.345000000  0.000000000     0.123102407  0.213219616  0.000000000
    -4.061659000  2.345000000  0.000000000    -0.123102407  0.213219616  0.000000000
     0.000000000  0.000000000 15.000000000     0.000000000  0.000000000  0.066666667

  length of vectors
     4.689999876  4.689999876 15.000000000     0.246204808  0.246204808  0.066666667

  position of ions in fractional coordinates (direct lattice)
     0.004183931  0.002770402  0.120265168
     0.356955219  0.002781990  0.097503442
     0.004186971  0.355542049  0.097502993
     0.651416230  0.650011713  0.097505455
     0.328100716  0.326694043  0.100282726
     0.680268274  0.002781113  0.100292166
     0.004186659  0.678856689  0.100294050

  ion indices of the primitive-cell ions
   primitive index   ion index
                 1           1
                 2           2
                 3           3
                 4           4
                 5           5
                 6           6
                 7           7

 KPOINTS: k-points

Automatic generation of k-mesh.
 Grid dimensions read from file:
 generate k-points for:   11   11    1

 Generating k-lattice:

  Cartesian coordinates                     Fractional coordinates (reciprocal lattice)
     0.011191128  0.019383601  0.000000000     0.090909091 -0.000000000  0.000000000
    -0.011191128  0.019383601  0.000000000    -0.000000000  0.090909091  0.000000000
     0.000000000  0.000000000  0.066666667     0.000000000  0.000000000  1.000000000

  Length of vectors
     0.022382255  0.022382255  0.066666667

  Shift w.r.t. Gamma in fractional coordinates (k-lattice)
     0.000000000  0.000000000  0.000000000

 Subroutine IBZKPT returns following result:

 Found     61 irreducible k-points:

 Following reciprocal coordinates:
            Coordinates               Weight
  0.000000  0.000000  0.000000      1.000000
  0.090909  0.000000  0.000000      2.000000
 -0.000000  0.090909  0.000000      2.000000
 -0.090909  0.090909  0.000000      2.000000
  0.181818 -0.000000  0.000000      2.000000
 -0.000000  0.181818  0.000000      2.000000
 -0.181818  0.181818  0.000000      2.000000
  0.272727  0.000000  0.000000      2.000000
  0.000000  0.272727  0.000000      2.000000
 -0.272727  0.272727  0.000000      2.000000
  0.363636  0.000000  0.000000      2.000000
 -0.000000  0.363636  0.000000      2.000000
 -0.363636  0.363636  0.000000      2.000000
  0.454545 -0.000000  0.000000      2.000000
 -0.000000  0.454545  0.000000      2.000000
 -0.454545  0.454545  0.000000      2.000000
  0.090909  0.090909  0.000000      2.000000
 -0.090909  0.181818  0.000000      2.000000
 -0.181818  0.090909  0.000000      2.000000
  0.181818  0.090909  0.000000      2.000000
 -0.090909  0.272727  0.000000      2.000000
 -0.272727  0.181818  0.000000      2.000000
 -0.181818  0.272727  0.000000      2.000000
  0.090909  0.181818  0.000000      2.000000
  0.272727 -0.090909  0.000000      2.000000
  0.272727  0.090909  0.000000      2.000000
 -0.090909  0.363636  0.000000      2.000000
 -0.363636  0.272727  0.000000      2.000000
 -0.272727  0.363636  0.000000      2.000000
  0.090909  0.272727  0.000000      2.000000
  0.363636 -0.090909  0.000000      2.000000
  0.363636  0.090909  0.000000      2.000000
 -0.090909  0.454545  0.000000      2.000000
 -0.454545  0.363636  0.000000      2.000000
 -0.363636  0.454545  0.000000      2.000000
  0.090909  0.363636  0.000000      2.000000
  0.454545 -0.090909  0.000000      2.000000
  0.454545  0.090909  0.000000      2.000000
 -0.090909 -0.454545  0.000000      2.000000
  0.454545  0.454545  0.000000      2.000000
  0.181818  0.181818  0.000000      2.000000
 -0.181818  0.363636  0.000000      2.000000
 -0.363636  0.181818  0.000000      2.000000
  0.272727  0.181818  0.000000      2.000000
 -0.181818  0.454545  0.000000      2.000000
 -0.454545  0.272727  0.000000      2.000000
 -0.272727  0.454545  0.000000      2.000000
  0.181818  0.272727  0.000000      2.000000
  0.454545 -0.181818  0.000000      2.000000
  0.363636  0.181818  0.000000      2.000000
 -0.181818 -0.454545  0.000000      2.000000
  0.454545  0.363636  0.000000      2.000000
 -0.363636 -0.454545  0.000000      2.000000
  0.181818  0.363636  0.000000      2.000000
 -0.454545 -0.181818  0.000000      2.000000
  0.272727  0.272727  0.000000      2.000000
 -0.272727 -0.454545  0.000000      2.000000
  0.454545  0.272727  0.000000      2.000000
  0.363636  0.272727  0.000000      2.000000
 -0.272727 -0.363636  0.000000      2.000000
  0.363636  0.363636  0.000000      2.000000

 Following cartesian coordinates:
            Coordinates               Weight
  0.000000  0.000000  0.000000      1.000000
  0.011191  0.019384  0.000000      2.000000
 -0.011191  0.019384  0.000000      2.000000
 -0.022382  0.000000  0.000000      2.000000
  0.022382  0.038767  0.000000      2.000000
 -0.022382  0.038767  0.000000      2.000000
 -0.044765  0.000000  0.000000      2.000000
  0.033573  0.058151  0.000000      2.000000
 -0.033573  0.058151  0.000000      2.000000
 -0.067147 -0.000000  0.000000      2.000000
  0.044765  0.077534  0.000000      2.000000
 -0.044765  0.077534  0.000000      2.000000
 -0.089529  0.000000  0.000000      2.000000
  0.055956  0.096918  0.000000      2.000000
 -0.055956  0.096918  0.000000      2.000000
 -0.111911 -0.000000  0.000000      2.000000
  0.000000  0.038767  0.000000      2.000000
 -0.033573  0.019384  0.000000      2.000000
 -0.033573 -0.019384  0.000000      2.000000
  0.011191  0.058151  0.000000      2.000000
 -0.044765  0.038767  0.000000      2.000000
 -0.055956 -0.019384  0.000000      2.000000
 -0.055956  0.019384  0.000000      2.000000
 -0.011191  0.058151  0.000000      2.000000
  0.044765  0.038767  0.000000      2.000000
  0.022382  0.077534  0.000000      2.000000
 -0.055956  0.058151  0.000000      2.000000
 -0.078338 -0.019384  0.000000      2.000000
 -0.078338  0.019384  0.000000      2.000000
 -0.022382  0.077534  0.000000      2.000000
  0.055956  0.058151  0.000000      2.000000
  0.033573  0.096918  0.000000      2.000000
 -0.067147  0.077534  0.000000      2.000000
 -0.100720 -0.019384  0.000000      2.000000
 -0.100720  0.019384  0.000000      2.000000
 -0.033573  0.096918  0.000000      2.000000
  0.067147  0.077534  0.000000      2.000000
  0.044765  0.116302  0.000000      2.000000
  0.044765 -0.116302  0.000000      2.000000
  0.000000  0.193836  0.000000      2.000000
 -0.000000  0.077534  0.000000      2.000000
 -0.067147  0.038767  0.000000      2.000000
 -0.067147 -0.038767  0.000000      2.000000
  0.011191  0.096918  0.000000      2.000000
 -0.078338  0.058151  0.000000      2.000000
 -0.089529 -0.038767  0.000000      2.000000
 -0.089529  0.038767  0.000000      2.000000
 -0.011191  0.096918  0.000000      2.000000
  0.078338  0.058151  0.000000      2.000000
  0.022382  0.116302  0.000000      2.000000
  0.033573 -0.135685  0.000000      2.000000
  0.011191  0.174452  0.000000      2.000000
  0.011191 -0.174452  0.000000      2.000000
 -0.022382  0.116302  0.000000      2.000000
 -0.033573 -0.135685  0.000000      2.000000
  0.000000  0.116302  0.000000      2.000000
  0.022382 -0.155069  0.000000      2.000000
  0.022382  0.155069  0.000000      2.000000
  0.011191  0.135685  0.000000      2.000000
  0.011191 -0.135685  0.000000      2.000000
 -0.000000  0.155069  0.000000      2.000000

 Subroutine IBZKPT_HF returns following result:

 Found    121 k-points in 1st BZ
 the following    121 k-points will be used (e.g. in the exchange kernel)
 Following reciprocal coordinates:   # in IRBZ
  0.000000  0.000000  0.000000    0.00826446   1 t-inv F
  0.090909  0.000000  0.000000    0.00826446   2 t-inv F
 -0.000000  0.090909  0.000000    0.00826446   3 t-inv F
 -0.090909  0.090909  0.000000    0.00826446   4 t-inv F
  0.181818 -0.000000  0.000000    0.00826446   5 t-inv F
 -0.000000  0.181818  0.000000    0.00826446   6 t-inv F
 -0.181818  0.181818  0.000000    0.00826446   7 t-inv F
  0.272727  0.000000  0.000000    0.00826446   8 t-inv F
  0.000000  0.272727  0.000000    0.00826446   9 t-inv F
 -0.272727  0.272727  0.000000    0.00826446  10 t-inv F
  0.363636  0.000000  0.000000    0.00826446  11 t-inv F
 -0.000000  0.363636  0.000000    0.00826446  12 t-inv F
 -0.363636  0.363636  0.000000    0.00826446  13 t-inv F
  0.454545 -0.000000  0.000000    0.00826446  14 t-inv F
 -0.000000  0.454545  0.000000    0.00826446  15 t-inv F
 -0.454545  0.454545  0.000000    0.00826446  16 t-inv F
  0.090909  0.090909  0.000000    0.00826446  17 t-inv F
 -0.090909  0.181818  0.000000    0.00826446  18 t-inv F
 -0.181818  0.090909  0.000000    0.00826446  19 t-inv F
  0.181818  0.090909  0.000000    0.00826446  20 t-inv F
 -0.090909  0.272727  0.000000    0.00826446  21 t-inv F
 -0.272727  0.181818  0.000000    0.00826446  22 t-inv F
[...]
     -2.74028      1.60174      1.50441        -0.212252      0.122442      0.042557
    total drift:                               -0.000077     -0.000044      0.001850

  FREE ENERGIE OF THE ION-ELECTRON SYSTEM (eV)
  free  energy   TOTEN  =       -59.17212868 eV

  energy  without entropy=      -59.17212868  energy(sigma->0) =      -59.17212868

 stress matrix after NEB project (eV)
     -1.75517      0.00007     -0.00012
      0.00007     -1.75487      0.00012
     -0.00012      0.00012     -0.09421
  FORCES: max atom, RMS     0.248705    0.166591
  FORCE total and by dimension    0.440758    0.244348
  Stress total and by dimension    2.483761    1.755168

 writing wavefunctions

[...]

 eigenvalue-minimisations  :     0
 total energy-change (2. order) : 0.2347101E+00  (-0.1810718E+00)
 number of electron      23.9999999 magnetization
 augmentation part        0.2559334 magnetization

[...]

 d Force =-0.1024844E-01[-0.298E-01, 0.926E-02]  d Energy =-0.2883157E-01 0.186E-01
 d Force =-0.1924566E+01[-0.202E+01,-0.183E+01]  d Ewald  =-0.6884050E+02 0.669E+02

 stress matrix after NEB project (eV)
      3.38091     -0.00014     -0.00003
     -0.00014      3.38011     -0.00002
     -0.00003     -0.00002      0.02364
  FORCES: max atom, RMS     0.779651    0.567794
  FORCE total and by dimension    1.502241    0.776598
  Stress total and by dimension    4.780822    3.380914
 Steepest descent step on ions:
 trial-energy change:    0.028832  1 .order    0.030034   -0.051827    0.111894
  (g-gl).g = 0.518E-01      g.g   = 0.518E-01  gl.gl    = 0.000E+00
 g(Force)  = 0.937E-02   g(Stress)= 0.425E-01 ortho     = 0.000E+00
 gamma     =   0.00000
 trial     =   1.00000
 opt step  =   0.32624  (harmonic =   0.31656) maximal distance =0.00334039
 next E    =   -59.180624   (d E  =  -0.00850)

[...]

 d Force = 0.1111103E-01[ 0.177E-02, 0.205E-01]  d Energy = 0.3739586E-01-0.263E-01
 d Force = 0.1342461E+01[ 0.130E+01, 0.139E+01]  d Ewald  = 0.4670730E+02-0.454E+02

[...]

 d Force =-0.7484320E-05[-0.773E-05,-0.724E-05]  d Energy = 0.1325701E-05-0.881E-05
 d Force =-0.5322631E-02[-0.532E-02,-0.532E-02]  d Ewald  =-0.1904375E+00 0.185E+00

[...]

 d Force =-0.1839316E-03[-0.193E-02, 0.156E-02]  d Energy =-0.2755676E-03 0.916E-04
 d Force = 0.9331559E+00[ 0.926E+00, 0.941E+00]  d Ewald  =-0.5119722E+01 0.605E+01

 stress matrix after NEB project (eV)
      0.22691      0.00002     -0.00001
      0.00002      0.22685      0.00001
     -0.00001      0.00001     -0.07216
  FORCES: max atom, RMS     0.145307    0.122555
  FORCE total and by dimension    0.324251    0.144958
  Stress total and by dimension    0.328874    0.226910
 Conjugate gradient step on ions:
 trial-energy change:    0.000276  1 .order    0.000311   -0.001810    0.002432
  (g-gl).g = 0.215E-02      g.g   = 0.209E-02  gl.gl    = 0.518E-01
 g(Force)  = 0.192E-02   g(Stress)= 0.173E-03 ortho     =-0.613E-04
 gamma     =   0.04157
 trial     =   0.86580
 opt step  =   0.38013  (harmonic =   0.36939) maximal distance =0.00125857
 next E    =   -59.181095   (d E  =  -0.00040)

[...]

 d Force = 0.5176601E-03[-0.487E-04, 0.108E-02]  d Energy = 0.6726501E-03-0.155E-03
 d Force =-0.5221946E+00[-0.525E+00,-0.520E+00]  d Ewald  = 0.2875891E+01-0.340E+01

[...]

 stress matrix after NEB project (eV)
      0.00971      0.00001      0.00000
      0.00001      0.00968     -0.00001
      0.00000     -0.00001     -0.06523
  FORCES: max atom, RMS     0.050084    0.024328
  FORCE total and by dimension    0.064366    0.050084
  Stress total and by dimension    0.066659    0.065233
 Conjugate gradient step on ions:
 trial-energy change:   -0.000222  1 .order   -0.000223   -0.000285   -0.000160
  (g-gl).g = 0.359E-03      g.g   = 0.368E-03  gl.gl    = 0.209E-02
 g(Force)  = 0.352E-03   g(Stress)= 0.164E-04 ortho     = 0.123E-04
 gamma     =   0.17160
 trial     =   0.76867
 opt step  =   1.75882  (harmonic =   1.75882) maximal distance =0.00550159
 next E    =   -59.181417   (d E  =  -0.00033)

[...]

 d Force = 0.1664915E-03[ 0.146E-03, 0.187E-03]  d Energy = 0.1762833E-03-0.979E-05
 d Force = 0.2716434E+00[ 0.273E+00, 0.270E+00]  d Ewald  =-0.6265746E-01 0.334E+00

[...]

 d Force = 0.1400927E-04[-0.985E-05, 0.379E-04]  d Energy =-0.1714293E-06 0.142E-04
 d Force = 0.1741227E+00[ 0.175E+00, 0.174E+00]  d Ewald  =-0.2124273E+00 0.387E+00

[...]

 d Force = 0.3519279E-05[ 0.400E-05, 0.303E-05]  d Energy = 0.4721540E-05-0.120E-05
 d Force =-0.5376874E-01[-0.537E-01,-0.538E-01]  d Ewald  = 0.6535148E-01-0.119E+00

[...]

 d Force =-0.6607577E-06[-0.155E-05, 0.225E-06]  d Energy =-0.7725221E-06 0.112E-06
 d Force =-0.2221224E-01[-0.222E-01,-0.222E-01]  d Ewald  = 0.2716283E-01-0.494E-01

[...]

 d Force = 0.7662894E-05[-0.346E-04, 0.500E-04]  d Energy = 0.1012390E-04-0.246E-05
 d Force = 0.9551309E-01[ 0.959E-01, 0.951E-01]  d Ewald  = 0.5715483E+00-0.476E+00

[...]

 d Force = 0.1075294E-04[ 0.785E-05, 0.137E-04]  d Energy = 0.7339410E-05 0.341E-05
 d Force =-0.3777791E-01[-0.377E-01,-0.378E-01]  d Ewald  =-0.2255530E+00 0.188E+00

[...]

 d Force = 0.1050331E-05[-0.956E-06, 0.306E-05]  d Energy =-0.6401287E-06 0.169E-05
 d Force =-0.1468445E-01[-0.147E-01,-0.147E-01]  d Ewald  =-0.8784433E-01 0.732E-01

[...]

 d Force = 0.5642395E-05[-0.856E-05, 0.198E-04]  d Energy =-0.1310215E-04 0.187E-04
 d Force = 0.1352141E+00[ 0.135E+00, 0.135E+00]  d Ewald  = 0.7127056E+00-0.577E+00

[...]

 d Force = 0.4635169E-05[ 0.381E-05, 0.546E-05]  d Energy = 0.1243779E-04-0.780E-05
 d Force =-0.8629643E-01[-0.862E-01,-0.864E-01]  d Ewald  =-0.4546172E+00 0.368E+00

[...]

 d Force = 0.3550521E-07[-0.107E-05, 0.114E-05]  d Energy = 0.1354541E-05-0.132E-05
 d Force =-0.2574281E-01[-0.257E-01,-0.258E-01]  d Ewald  =-0.1357825E+00 0.110E+00

[...]

 d Force = 0.2985579E-06[-0.175E-04, 0.181E-04]  d Energy =-0.6318997E-05 0.662E-05
 d Force = 0.2144572E+00[ 0.215E+00, 0.214E+00]  d Ewald  =-0.6995544E+00 0.914E+00

[...]

 d Force = 0.2872817E-05[ 0.138E-05, 0.437E-05]  d Energy = 0.7375929E-06 0.214E-05
 d Force =-0.4734511E-01[-0.473E-01,-0.474E-01]  d Ewald  = 0.1545951E+00-0.202E+00

[...]

 d Force = 0.7497618E-07[-0.678E-07, 0.218E-06]  d Energy = 0.2681982E-06-0.193E-06
 d Force = 0.6477172E-02[ 0.648E-02, 0.648E-02]  d Ewald  =-0.2117412E-01 0.277E-01

[...]

 d Force =-0.3274215E-06[-0.752E-06, 0.968E-07]  d Energy =-0.7912149E-08-0.320E-06
 d Force =-0.5815070E-02[-0.581E-02,-0.582E-02]  d Ewald  = 0.5201268E-01-0.578E-01

[...]

 d Force = 0.1831709E-06[-0.332E-07, 0.399E-06]  d Energy = 0.3553159E-06-0.172E-06
 d Force = 0.3090525E-02[ 0.309E-02, 0.309E-02]  d Ewald  =-0.2764464E-01 0.307E-01

[...]

 d Force =-0.2449839E-07[-0.656E-07, 0.166E-07]  d Energy = 0.6220716E-07-0.867E-07
 d Force =-0.1545313E-02[-0.155E-02,-0.155E-02]  d Ewald  = 0.1382233E-01-0.154E-01

[...]

 stress matrix after NEB project (eV)
      0.00186      0.00004      0.00000
      0.00004      0.00184      0.00000
      0.00000      0.00000     -0.08264
  FORCES: max atom, RMS     0.003883    0.002342
  FORCE total and by dimension    0.006196    0.003883
  Stress total and by dimension    0.082679    0.082637
 Conjugate gradient step on ions:
 trial-energy change:   -0.000001  1 .order   -0.000001   -0.000002   -0.000001
  (g-gl).g = 0.494E-05      g.g   = 0.409E-05  gl.gl    = 0.138E-04
 g(Force)  = 0.157E-05   g(Stress)= 0.251E-05 ortho     =-0.336E-06
 gamma     =   0.35799
 trial     =   0.49699
 opt step  =   0.68611  (harmonic =   0.68611) maximal distance =0.00027751
 next E    =   -59.182097   (d E  =  -0.00000)

[...]

 d Force =-0.1730190E-06[-0.511E-06, 0.165E-06]  d Energy =-0.4571011E-06 0.284E-06
 d Force = 0.1034637E-01[ 0.103E-01, 0.103E-01]  d Ewald  = 0.7254590E-01-0.622E-01

[...]

 d Force = 0.1697088E-06[-0.468E-07, 0.386E-06]  d Energy = 0.4246008E-06-0.255E-06
 d Force =-0.7823960E-02[-0.782E-02,-0.782E-02]  d Ewald  =-0.5485855E-01 0.470E-01

[...]

 d Force = 0.9564305E-06[ 0.783E-06, 0.113E-05]  d Energy = 0.4533540E-06 0.503E-06
 d Force = 0.1348642E-01[ 0.135E-01, 0.135E-01]  d Ewald  = 0.7472607E-01-0.612E-01

[...]

 d Force = 0.8057259E-06[ 0.497E-06, 0.111E-05]  d Energy =-0.4291287E-06 0.123E-05
 d Force = 0.1920047E-01[ 0.192E-01, 0.192E-01]  d Ewald  = 0.1063063E+00-0.871E-01

[...]

 d Force =-0.1493224E-06[-0.738E-06, 0.440E-06]  d Energy =-0.7028257E-07-0.790E-07
 d Force = 0.1388689E-01[ 0.139E-01, 0.139E-01]  d Ewald  =-0.4957829E-01 0.635E-01

[...]

 d Force = 0.1280754E-06[-0.439E-07, 0.300E-06]  d Energy = 0.4528870E-06-0.325E-06
 d Force =-0.5645264E-02[-0.564E-02,-0.565E-02]  d Ewald  = 0.2015135E-01-0.258E-01

[...]

 d Force =-0.1273811E-08[-0.216E-07, 0.191E-07]  d Energy = 0.9397718E-07-0.953E-07
 d Force = 0.2454818E-02[ 0.245E-02, 0.245E-02]  d Ewald  =-0.8763244E-02 0.112E-01

[...]

 d Force =-0.1075105E-07[-0.120E-07,-0.947E-08]  d Energy = 0.3682635E-07-0.476E-07
 d Force = 0.1074057E-02[ 0.107E-02, 0.107E-02]  d Ewald  =-0.3833932E-02 0.491E-02

 stress matrix after NEB project (eV)
     -0.01113     -0.00005      0.00001
     -0.00005     -0.01103     -0.00001
      0.00001     -0.00001     -0.08195
  FORCES: max atom, RMS     0.002811    0.002139
  FORCE total and by dimension    0.005659    0.002196
  Stress total and by dimension    0.083430    0.081946

 writing wavefunctions

--------------------------------------- Ionic step       48  -------------------------------------------

[...]

 eigenvalue-minimisations  :     0
 total energy-change (2. order) : 0.1448143E-06  (-0.7503279E-06)
 number of electron      24.0000000 magnetization
 augmentation part        0.2446840 magnetization

[...]

--------------------------------------- Iteration     48(   2)  ---------------------------------------

 eigenvalue-minimisations  :     0
 total energy-change (2. order) :-0.5174447E-06  (-0.2961467E-06)
 number of electron      24.0000000 magnetization
 augmentation part        0.2446816 magnetization

 Free energy of the ion-electron system (eV)
  alpha Z        PSCENC =        13.00555883
  Ewald energy   TEWEN  =      2059.48023410
  -Hartree energ DENC   =     -2675.27161660
  -exchange      EXHF   =        48.59121365
  -V(xc)+E(xc)   XCENC  =        54.25136536
  PAW double counting   =      2706.68849513    -2705.33711533
  entropy T*S    EENTRO =        -0.00000000
  eigenvalues    EBANDS =      -277.84725872
  atomic energy  EATOM  =       717.25701665
  free energy    TOTEN  =       -59.18209685 eV

  energy without entropy =      -59.18209685  energy(sigma->0) =      -59.18209685
  exchange ACFDT corr.  =        -0.00000000  see jH, gK, PRB 81, 115126

  average scaling for gradient   1.0019

 average (electrostatic) potential at core
  the test charge radii are     0.7672  0.6991
  (the norm of the test charge is              1.0000)
       1 -34.4779       2 -32.5242       3 -32.5242       4 -32.5242       5 -52.9916
       6 -52.9916       7 -52.9916

 E-fermi :  -2.8394     XC(G=0):  -2.4448     alpha+bet : -2.6315

 Fermi energy:        -2.8394418350

[...]

 k-point    61 :       0.3636    0.3636    0.0000
  band No.  band energies     occupation
      1     -21.2852      2.00000
      2     -18.9561      2.00000
      3     -18.6281      2.00000
      4     -12.9351      2.00000
      5     -12.2682      2.00000
      6     -11.2601      2.00000
      7      -8.7810      2.00000
      8      -8.5805      2.00000
      9      -8.4153      2.00000
     10      -6.6906      2.00000
     11      -6.4740      2.00000
     12      -5.9841      2.00000
     13       0.9755      0.00000
     14       2.6920      0.00000
     15       3.3848      0.00000
     16       3.4422      0.00000

 soft charge-density along one line, spin component           1
         0         1         2         3         4         5         6         7         8         9
 total charge-density along one line

------------------------ aborting loop because EDIFF is reached ----------------------------------------

[...]

  FORCE on cell =-STRESS in cart. coord.  units (eV):
  Direction    XX          YY          ZZ          XY          YZ          ZX
  Alpha Z    13.00556    13.00556    13.00556
  Ewald    2736.70904  2736.70823 -3413.93794    -0.00000    -0.00053     0.00000
  Hartree  2637.08461  2637.08446 -2598.89749    -0.00004    -0.00019    -0.00000
  E(xc)     -63.79959   -63.79959   -64.67469    -0.00000     0.00000     0.00000
  Local   -5594.40126 -5594.40045  5746.93242     0.00005     0.00069     0.00001
  n-local   -13.15122   -13.15125   -13.97089     0.00000     0.00001    -0.00000
  augment    -0.80126    -0.80122    -0.65979    -0.00002    -0.00001     0.00001
  Kinetic   306.34690   306.34709   351.11000    -0.00000     0.00002    -0.00000
  Fock      -20.99733   -20.99732   -18.98986    -0.00000     0.00000    -0.00000
  Total      -0.00455    -0.00449    -0.08268    -0.00001    -0.00001     0.00001
  in kB      -0.02576    -0.02544    -0.46814    -0.00005    -0.00008     0.00006

 VOLUME and BASIS-vectors are now :
  energy-cutoff  :      450.00
  volume of cell :      282.96
      direct lattice vectors                 reciprocal lattice vectors
     4.041886586  2.333583777  0.000000000     0.123704600  0.214262732  0.000000000
    -4.041886298  2.333583278  0.000000000    -0.123704627  0.214262747  0.000000000
     0.000000000  0.000000000 15.000000000     0.000000000  0.000000000  0.066666667

  length of vectors
     4.667168351  4.667167853 15.000000000     0.247409269  0.247409296  0.066666667

 FORCES acting on ions:
    Electron-Ion                     Ewald-Force                    Non-Local-Force
   -.149E-03 -.171E-03 -.101E+03   0.149E-03 0.189E-03 0.103E+03   -.449E-05 -.270E-04 -.180E+01
   -.214E+02 -.124E+02 0.227E+02   0.243E+02 0.140E+02 -.232E+02   -.271E+01 -.157E+01 0.457E+00
   0.214E+02 -.124E+02 0.227E+02   -.243E+02 0.140E+02 -.232E+02   0.271E+01 -.157E+01 0.457E+00
   -.634E-04 0.248E+02 0.227E+02   0.540E-04 -.280E+02 -.232E+02   -.532E-05 0.313E+01 0.457E+00
   -.122E-03 -.384E+02 0.880E+01   0.140E-03 0.450E+02 -.110E+02   0.274E-05 -.618E+01 0.212E+01
   0.333E+02 0.192E+02 0.880E+01   -.390E+02 -.225E+02 -.110E+02   0.535E+01 0.309E+01 0.212E+01
   -.333E+02 0.192E+02 0.880E+01   0.390E+02 -.225E+02 -.110E+02   -.535E+01 0.309E+01 0.212E+01
   0.133E-04 -.129E-03 -.625E+01   -.213E-13 0.178E-13 0.178E-14   0.511E-04 -.135E-03 0.593E+01

 POSITION                                       TOTAL-FORCE (eV/Angst)
      0.00569      0.01625      1.82924        -0.000014      0.000032      0.000271
      1.43042      0.83881      1.45463         0.000463      0.000334     -0.000390
     -1.41903      0.83881      1.45463        -0.000532      0.000345     -0.000394
      0.00569      3.03829      1.45463        -0.000026     -0.000474     -0.000390
      0.00569      1.52429      1.50384         0.000010     -0.000882      0.000304
      2.74157      1.59581      1.50385         0.000623      0.000345      0.000300
     -2.73018      1.59581      1.50385        -0.000524      0.000301      0.000299
    total drift:                                0.000072     -0.000283     -0.000831

  FREE ENERGIE OF THE ION-ELECTRON SYSTEM (eV)
  free  energy   TOTEN  =       -59.18209685 eV

  energy  without entropy=      -59.18209685  energy(sigma->0) =      -59.18209685

 d Force = 0.1440720E-06[ 0.535E-09, 0.288E-06]  d Energy = 0.3553801E-06-0.211E-06
 d Force = 0.5064410E-02[ 0.506E-02, 0.506E-02]  d Ewald  =-0.8565658E-01 0.907E-01

 stress matrix after NEB project (eV)
     -0.00455     -0.00001      0.00001
     -0.00001     -0.00449     -0.00001
      0.00001     -0.00001     -0.08268
  FORCES: max atom, RMS     0.000933    0.000698
  FORCE total and by dimension    0.001847    0.000882
  Stress total and by dimension    0.082926    0.082679
 Conjugate gradient step on ions:
 trial-energy change:   -0.000000  1 .order   -0.000000   -0.000001   -0.000000
  (g-gl).g = 0.433E-06      g.g   = 0.324E-05  gl.gl    = 0.343E-05
 g(Force)  = 0.154E-05   g(Stress)= 0.169E-05 ortho     = 0.495E-06
 gamma     =   0.12630
 trial     =   0.19850
 opt step  =   0.25768  (harmonic =   0.25768) maximal distance =0.00002927
 next E    =   -59.182097   (d E  =  -0.00000)

 reached required accuracy - stopping structural energy minimisation
 writing wavefunctions

 total charge

# of ion       s       p       d       tot
    1        0.699   1.417   0.000   2.116
    2        0.718   1.351   0.000   2.070
    3        0.718   1.351   0.000   2.070
    4        0.718   1.351   0.000   2.070
    5        0.853   1.793   0.000   2.646
    6        0.853   1.793   0.000   2.646
    7        0.853   1.793   0.000   2.646
tot          5.414  10.850   0.000  16.264