 vasp.6.3.2 27Jun22 (build Dec 22 2022 13:13:19) complex

 executed on             LinuxIFC date 2023.11.03  19:34:05

 INCAR:
   SYSTEM = Lattice
   ISTART = 0
   ICHARG = 2
   PREC = Accurate
   ENCUT = 450
   LCHARG = .FALSE.
   LWAVE = .FALSE.
   ALGO = Normal
   NELM = 64
   EDIFF = 1E-6
   EDIFFG = -1E-3
   SIGMA = 0.1
   ISMEAR = 0
   ISPIN = 1
   NSW = 256
   IBRION = 2
   POTIM = .5
   ISIF = 2
   GGA = PE
   IVDW = 12

 POTCAR:    PAW_PBE B 06Sep2000
 POTCAR:    PAW_PBE C 08Apr2002
 POTCAR:    PAW_PBE B 06Sep2000
   VRHFIN =B: s2p1

   TITEL  = PAW_PBE B 06Sep2000
   POMASS =   10.811; ZVAL   =    3.000    mass and valenz
   ENMAX  =  318.614; ENMIN  =  238.960 eV

   TITEL  = PAW_PBE C 08Apr2002
   POMASS =   12.011; ZVAL   =    4.000    mass and valenz
   ENMAX  =  400.000; ENMIN  =  300.000 eV

  PAW_PBE B 06Sep2000                   :
  PAW_PBE C 08Apr2002                   :

 POSCAR: BC3 with lattice parameter 5.169
  positions in direct lattice
 exchange correlation table for  LEXCH =        8
   RHO(1)=    0.500       N(1)  =     2000
   RHO(2)=  100.500       N(2)  =     4000

 VTST: version 4.2, (08/11/21)

 CHAIN: initializing optimizer

 OPT: Using VASP Conjugate-Gradient optimizer
 CHAIN: Read ICHAIN            0

 POSCAR: BC3 with lattice parameter 5.169
  positions in direct lattice

 ion  position               nearest neighbor table
   1  0.338  0.669  0.250-   7 1.56   5 1.56   3 1.56
   2  0.672  0.336  0.250-   6 1.56   4 1.56   8 1.56
   3  0.164  0.321  0.250-   6 1.43   4 1.43   1 1.56
   4  0.323  0.162  0.250-   5 1.43   3 1.43   2 1.56
   5  0.164  0.844  0.250-   8 1.43   4 1.43   1 1.56
   6  0.846  0.161  0.250-   3 1.43   7 1.43   2 1.56
   7  0.687  0.843  0.250-   6 1.43   8 1.43   1 1.56
   8  0.846  0.684  0.250-   5 1.43   7 1.43   2 1.56

  LATTYP: Found a hexagonal cell.
 ALAT       =     5.1689997297
 C/A-ratio  =     2.9019154158

  Lattice vectors:

 A1 = (   4.4764850000,   2.5845000000,   0.0000000000)
 A2 = (  -4.4764850000,   2.5845000000,   0.0000000000)
 A3 = (   0.0000000000,   0.0000000000,  15.0000000000)

Analysis of symmetry for initial positions (statically):
 Subroutine PRICEL returns:
 Original cell was already a primitive cell.

 Routine SETGRP: Setting up the symmetry group for a
 hexagonal supercell.

 Subroutine GETGRP returns: Found  2 space group operations
 (whereof  1 operations were pure point group operations)
 out of a pool of 24 trial point group operations.

The static configuration has the point symmetry C_1 .
 The point group associated with its full space group is C_1h.

Analysis of symmetry for dynamics (positions and initial velocities):
 Subroutine PRICEL returns:
 Original cell was already a primitive cell.

 Routine SETGRP: Setting up the symmetry group for a
 hexagonal supercell.

 Subroutine GETGRP returns: Found  2 space group operations
 (whereof  1 operations were pure point group operations)
 out of a pool of 24 trial point group operations.

The dynamic configuration has the point symmetry C_1 .
 The point group associated with its full space group is C_1h.

 Subroutine INISYM returns: Found  2 space group operations
 (whereof  1 operations are pure point group operations),
 and found     1 'primitive' translations

                                     Primitive cell

  volume of cell :     347.0843

  direct lattice vectors                    reciprocal lattice vectors
     4.476485000  2.584500000  0.000000000     0.111694778  0.193461018  0.000000000
    -4.476485000  2.584500000  0.000000000    -0.111694778  0.193461018  0.000000000
     0.000000000  0.000000000 15.000000000     0.000000000  0.000000000  0.066666667

  length of vectors
     5.168999730  5.168999730 15.000000000     0.223389545  0.223389545  0.066666667

  position of ions in fractional coordinates (direct lattice)
     0.338355679  0.669193380  0.250000000
     0.671685498  0.335784119  0.250000000
     0.163934177  0.320961209  0.250000000
     0.323443825  0.161949178  0.250000000
     0.164451415  0.843507827  0.250000000
     0.845556746  0.161476941  0.250000000
     0.686507302  0.843049958  0.250000000
     0.846061357  0.684073387  0.250000000

  ion indices of the primitive-cell ions
   primitive index   ion index
                 1           1
                 2           2
                 3           3
                 4           4
                 5           5
                 6           6
                 7           7
                 8           8

 KPOINTS: k-points

Automatic generation of k-mesh.
 Grid dimensions read from file:
 generate k-points for:   17   17    1

 Generating k-lattice:

  Cartesian coordinates                     Fractional coordinates (reciprocal lattice)
     0.006570281  0.011380060  0.000000000     0.058823529  0.000000000  0.000000000
    -0.006570281  0.011380060  0.000000000     0.000000000  0.058823529  0.000000000
     0.000000000  0.000000000  0.066666667     0.000000000  0.000000000  1.000000000

  Length of vectors
     0.013140561  0.013140561  0.066666667

  Shift w.r.t. Gamma in fractional coordinates (k-lattice)
     0.000000000  0.000000000  0.000000000

 Subroutine IBZKPT returns following result:

 Found    145 irreducible k-points:

 Following reciprocal coordinates:
            Coordinates               Weight
  0.000000  0.000000  0.000000      1.000000
  0.058824  0.000000  0.000000      2.000000
  0.000000  0.058824  0.000000      2.000000
 -0.058824  0.058824  0.000000      2.000000
  0.117647 -0.000000  0.000000      2.000000
 -0.000000  0.117647  0.000000      2.000000
 -0.117647  0.117647  0.000000      2.000000
  0.176471 -0.000000  0.000000      2.000000
 -0.000000  0.176471  0.000000      2.000000
 -0.176471  0.176471  0.000000      2.000000
  0.235294 -0.000000  0.000000      2.000000
 -0.000000  0.235294  0.000000      2.000000
 -0.235294  0.235294  0.000000      2.000000
  0.294118 -0.000000  0.000000      2.000000
 -0.000000  0.294118  0.000000      2.000000
 -0.294118  0.294118  0.000000      2.000000
  0.352941  0.000000  0.000000      2.000000
  0.000000  0.352941  0.000000      2.000000
 -0.352941  0.352941  0.000000      2.000000
  0.411765  0.000000  0.000000      2.000000
  0.000000  0.411765  0.000000      2.000000
 -0.411765  0.411765  0.000000      2.000000
  0.470588 -0.000000  0.000000      2.000000
 -0.000000  0.470588  0.000000      2.000000
 -0.470588  0.470588  0.000000      2.000000
  0.058824  0.058824  0.000000      2.000000
 -0.058824  0.117647  0.000000      2.000000
 -0.117647  0.058824  0.000000      2.000000
  0.117647  0.058824  0.000000      2.000000
 -0.058824  0.176471  0.000000      2.000000
 -0.176471  0.117647  0.000000      2.000000
 -0.117647  0.176471  0.000000      2.000000
  0.058824  0.117647  0.000000      2.000000
  0.176471 -0.058824  0.000000      2.000000
  0.176471  0.058824  0.000000      2.000000
 -0.058824  0.235294  0.000000      2.000000
 -0.235294  0.176471  0.000000      2.000000
 -0.176471  0.235294  0.000000      2.000000
  0.058824  0.176471  0.000000      2.000000
  0.235294 -0.058824  0.000000      2.000000
  0.235294  0.058824  0.000000      2.000000
 -0.058824  0.294118  0.000000      2.000000
 -0.294118  0.235294  0.000000      2.000000
 -0.235294  0.294118  0.000000      2.000000
  0.058824  0.235294  0.000000      2.000000
  0.294118 -0.058824  0.000000      2.000000
  0.294118  0.058824  0.000000      2.000000
 -0.058824  0.352941  0.000000      2.000000
 -0.352941  0.294118  0.000000      2.000000
 -0.294118  0.352941  0.000000      2.000000
  0.058824  0.294118  0.000000      2.000000
  0.352941 -0.058824  0.000000      2.000000
  0.352941  0.058824  0.000000      2.000000
 -0.058824  0.411765  0.000000      2.000000
 -0.411765  0.352941  0.000000      2.000000
 -0.352941  0.411765  0.000000      2.000000
  0.058824  0.352941  0.000000      2.000000
  0.411765 -0.058824  0.000000      2.000000
  0.411765  0.058824  0.000000      2.000000
 -0.058824  0.470588  0.000000      2.000000
[...]
 -0.294118 -0.470588  0.000000      2.000000
  0.235294  0.294118  0.000000      2.000000
 -0.470588 -0.235294  0.000000      2.000000
  0.352941  0.235294  0.000000      2.000000
 -0.235294 -0.411765  0.000000      2.000000
  0.411765  0.352941  0.000000      2.000000
 -0.352941 -0.411765  0.000000      2.000000
  0.235294  0.352941  0.000000      2.000000
 -0.411765 -0.235294  0.000000      2.000000
  0.294118  0.294118  0.000000      2.000000
 -0.294118 -0.411765  0.000000      2.000000
  0.411765  0.294118  0.000000      2.000000
  0.352941  0.294118  0.000000      2.000000
 -0.294118 -0.352941  0.000000      2.000000
  0.352941  0.352941  0.000000      2.000000

 Following cartesian coordinates:
            Coordinates               Weight
  0.000000  0.000000  0.000000      1.000000
  0.006570  0.011380  0.000000      2.000000
 -0.006570  0.011380  0.000000      2.000000
 -0.013141  0.000000  0.000000      2.000000
  0.013141  0.022760  0.000000      2.000000
 -0.013141  0.022760  0.000000      2.000000
 -0.026281 -0.000000  0.000000      2.000000
  0.019711  0.034140  0.000000      2.000000
 -0.019711  0.034140  0.000000      2.000000
 -0.039422 -0.000000  0.000000      2.000000
  0.026281  0.045520  0.000000      2.000000
 -0.026281  0.045520  0.000000      2.000000
 -0.052562 -0.000000  0.000000      2.000000
  0.032851  0.056900  0.000000      2.000000
 -0.032851  0.056900  0.000000      2.000000
 -0.065703 -0.000000  0.000000      2.000000
  0.039422  0.068280  0.000000      2.000000
 -0.039422  0.068280  0.000000      2.000000
 -0.078843  0.000000  0.000000      2.000000
  0.045992  0.079660  0.000000      2.000000
 -0.045992  0.079660  0.000000      2.000000
 -0.091984  0.000000  0.000000      2.000000
  0.052562  0.091040  0.000000      2.000000
 -0.052562  0.091040  0.000000      2.000000
 -0.105124 -0.000000  0.000000      2.000000
  0.000000  0.022760  0.000000      2.000000
 -0.019711  0.011380  0.000000      2.000000
 -0.019711 -0.011380  0.000000      2.000000
  0.006570  0.034140  0.000000      2.000000
 -0.026281  0.022760  0.000000      2.000000
 -0.032851 -0.011380  0.000000      2.000000
 -0.032851  0.011380  0.000000      2.000000
 -0.006570  0.034140  0.000000      2.000000
  0.026281  0.022760  0.000000      2.000000
  0.013141  0.045520  0.000000      2.000000
 -0.032851  0.034140  0.000000      2.000000
 -0.045992 -0.011380  0.000000      2.000000
 -0.045992  0.011380  0.000000      2.000000
 -0.013141  0.045520  0.000000      2.000000
  0.032851  0.034140  0.000000      2.000000
  0.019711  0.056900  0.000000      2.000000
 -0.039422  0.045520  0.000000      2.000000
 -0.059133 -0.011380  0.000000      2.000000
 -0.059133  0.011380  0.000000      2.000000
 -0.019711  0.056900  0.000000      2.000000
  0.039422  0.045520  0.000000      2.000000
  0.026281  0.068280  0.000000      2.000000
 -0.045992  0.056900  0.000000      2.000000
 -0.072273 -0.011380  0.000000      2.000000
 -0.072273  0.011380  0.000000      2.000000
 -0.026281  0.068280  0.000000      2.000000
  0.045992  0.056900  0.000000      2.000000
  0.032851  0.079660  0.000000      2.000000
[...]

         DFTD3 V3.0 Rev 1
 IVDW         = 12
 DF pbe
 parameters
 VDW_S6       =    1.0000
 VDW_S8       =    0.7875
 VDW_A1       =    0.4289
 VDW_A2       =    4.4407
 k1-k3        =   16.0000    1.3333   -4.0000
 VDW_RADIUS   =   50.2022 A
 VDW_CNRADIUS =   21.1671 A
 Edisp (eV)   -0.67834

 E6    (eV) :    -0.4581
 E8    (eV) :    -0.2202
 % E8        : 32.46

  FORCE on cell =-STRESS in cart. coord.  units (eV):
  Direction    XX          YY          ZZ          XY          YZ          ZX
  Alpha Z    14.61462    14.61462    14.61462
  Ewald    3500.40216  3500.60238 -4398.90803     0.10310     0.00000    -0.00000
  Hartree  3439.62916  3439.63065 -3381.80207     0.01256    -0.00000     0.00000
  E(xc)    -107.45679  -107.45611  -111.28711     0.00023     0.00000     0.00000
  Local   -7257.04858 -7257.19998  7444.12040    -0.09495     0.00000    -0.00000
  n-local   -21.61792   -21.61710   -10.29854     0.00144     0.00000     0.00000
  augment    -1.79452    -1.79483    -1.79050    -0.00013     0.00000    -0.00000
  Kinetic   433.38546   433.36092   445.16881    -0.01474     0.00000    -0.00000
  Fock        0.00000     0.00000     0.00000     0.00000     0.00000     0.00000
  vdW        -0.54724    -0.54726    -0.00593    -0.00002    -0.00000    -0.00000
  Total      -0.43365    -0.40672    -0.18836     0.00750     0.00000     0.00000
  in kB      -2.00179    -1.87748    -0.86948     0.03464     0.00000     0.00000

 VOLUME and BASIS-vectors are now :
  energy-cutoff  :      450.00
  volume of cell :      347.08
      direct lattice vectors                 reciprocal lattice vectors
     4.476485000  2.584500000  0.000000000     0.111694778  0.193461018  0.000000000
    -4.476485000  2.584500000  0.000000000    -0.111694778  0.193461018  0.000000000
     0.000000000  0.000000000 15.000000000     0.000000000  0.000000000  0.066666667

[...]

 FORCES acting on ions
    electron-ion (+dipol)            ewald-force                    non-local-force                 convergence-correction
   -.180E-01 0.210E-01 0.147E-06   0.152E-01 -.250E-01 0.917E-18   -.822E-03 -.397E-02 0.202E-27   -.164E-06 0.115E-07 0.558E-13
   0.596E-01 -.104E-01 0.330E-07   -.633E-01 0.132E-01 -.752E-18   -.763E-02 0.226E-02 -.202E-27   0.192E-06 0.271E-08 0.556E-13
   0.246E+02 -.427E+02 -.280E-06   -.266E+02 0.460E+02 -.748E-18   0.210E+01 -.358E+01 -.162E-26   0.161E-05 -.325E-05 0.780E-13
   -.245E+02 -.427E+02 -.398E-06   0.264E+02 0.461E+02 -.579E-18   -.205E+01 -.360E+01 0.194E-25   -.179E-05 -.361E-05 0.805E-13
   -.493E+02 -.988E-01 0.379E-07   0.531E+02 0.114E+00 0.274E-18   -.415E+01 -.213E-01 0.808E-27   -.345E-05 -.317E-07 0.820E-13
   0.493E+02 0.973E-01 -.151E-06   -.531E+02 -.113E+00 -.789E-18   0.414E+01 0.220E-01 -.323E-26   0.382E-05 0.128E-07 0.778E-13
   0.245E+02 0.427E+02 0.311E-06   -.264E+02 -.461E+02 0.102E-17   0.206E+01 0.361E+01 0.194E-25   0.158E-05 0.325E-05 0.796E-13
   -.246E+02 0.427E+02 0.103E-06   0.266E+02 -.460E+02 0.645E-18   -.210E+01 0.357E+01 0.242E-26   -.183E-05 0.360E-05 0.764E-13
   0.151E-02 0.421E-03 -.197E-06   0.000E+00 0.000E+00 -.929E-20   -.124E-02 0.150E-04 0.372E-25   -.265E-07 -.119E-07 0.586E-12

 POSITION                                       TOTAL-FORCE (eV/Angst)
     -1.48099      2.60401      3.75000        -0.003640     -0.008047      0.000000
      1.50366      2.60381      3.75000        -0.011383      0.004945     -0.000000
     -0.70293      1.25321      3.75000         0.166219     -0.215973     -0.000000
      0.72293      1.25450      3.75000        -0.131900     -0.236649      0.000000
     -3.03979      2.60507      3.75000        -0.266944     -0.005746     -0.000000
      3.06227      2.60268      3.75000         0.259426      0.006461     -0.000000
     -0.70076      3.95314      3.75000         0.144463      0.244828      0.000000
      0.72514      3.95463      3.75000        -0.156242      0.210182      0.000000
    total drift:                                0.000273      0.000436     -0.000000

  FREE ENERGIE OF THE ION-ELECTRON SYSTEM (eV)
  free  energy   TOTEN  =       -67.90427657 eV

  energy  without entropy=      -67.90427646  energy(sigma->0) =      -67.90427652

 stress matrix after NEB project (eV)
     -0.43365      0.00750      0.00000
      0.00750     -0.40672      0.00000
      0.00000      0.00000     -0.18836
  FORCES: max atom, RMS     0.284272    0.233436
  FORCE total and by dimension    0.660258    0.266944
  Stress total and by dimension    0.623755    0.433654

[...]

         DFTD3 V3.0 Rev 1
 Edisp (eV)   -0.67734

[...]

 d Force =-0.1138985E-01[-0.438E-01, 0.210E-01]  d Energy =-0.1125938E-01-0.130E-03
 d Force =-0.4372151E+01[-0.461E+01,-0.413E+01]  d Ewald  =-0.4371747E+01-0.404E-03

 stress matrix after NEB project (eV)
      0.47015     -0.03073      0.00000
     -0.03073      0.35789      0.00000
      0.00000      0.00000     -0.18740
  FORCES: max atom, RMS     0.611495    0.487798
  FORCE total and by dimension    1.379700    0.540807
  Stress total and by dimension    0.621398    0.470154
 Steepest descent step on ions:
 trial-energy change:    0.011259  1 .order    0.011390   -0.021031    0.043811
  (g-gl).g = 0.210E-01      g.g   = 0.210E-01  gl.gl    = 0.000E+00
 g(Force)  = 0.210E-01   g(Stress)= 0.000E+00 ortho     = 0.000E+00
 gamma     =   0.00000
 trial     =   1.00000
 opt step  =   0.32700  (harmonic =   0.32434) maximal distance =0.00409254
 next E    =   -67.907720   (d E  =  -0.00344)

[...]

 d Force = 0.1474415E-01[ 0.376E-05, 0.295E-01]  d Energy = 0.1470114E-01 0.430E-04
 d Force = 0.2995124E+01[ 0.289E+01, 0.310E+01]  d Ewald  = 0.2994999E+01 0.125E-03

[...]

 eigenvalues of (default mixing * dielectric matrix)
  average eigenvalue GAMMA=   1.7557
  1.7557

[...]

 d Force = 0.4273787E-05[-0.399E-04, 0.485E-04]  d Energy = 0.4997924E-05-0.724E-06
 d Force =-0.8236891E-02[-0.831E-02,-0.816E-02]  d Ewald  =-0.8236885E-02-0.622E-08

 stress matrix after NEB project (eV)
     -0.18896      0.01434      0.00000
      0.01434     -0.14730      0.00000
      0.00000      0.00000     -0.18832
  FORCES: max atom, RMS     0.037280    0.024165
  FORCE total and by dimension    0.068350    0.031217
  Stress total and by dimension    0.305416    0.188958
 Conjugate gradient step on ions:
 trial-energy change:   -0.000005  1 .order   -0.000004   -0.000048    0.000040
  (g-gl).g = 0.616E-04      g.g   = 0.560E-04  gl.gl    = 0.210E-01
 g(Force)  = 0.560E-04   g(Stress)= 0.000E+00 ortho     =-0.559E-05
 gamma     =   0.00293
 trial     =   0.86540
 opt step  =   0.47453  (harmonic =   0.47453) maximal distance =0.00037749
 next E    =   -67.907732   (d E  =  -0.00001)

[...]

 stress matrix after NEB project (eV)
     -0.17598      0.00476      0.00000
      0.00476     -0.16263      0.00000
      0.00000      0.00000     -0.18833
  FORCES: max atom, RMS     0.012549    0.007262
  FORCE total and by dimension    0.020541    0.010729
  Stress total and by dimension    0.304849    0.188335
 Conjugate gradient step on ions:
 trial-energy change:   -0.000016  1 .order   -0.000016   -0.000021   -0.000012
  (g-gl).g = 0.612E-04      g.g   = 0.598E-04  gl.gl    = 0.560E-04
 g(Force)  = 0.598E-04   g(Stress)= 0.000E+00 ortho     =-0.147E-05
 gamma     =   1.09290
 trial     =   0.35761
 opt step  =   0.81457  (harmonic =   0.81457) maximal distance =0.00081772
 next E    =   -67.907756   (d E  =  -0.00002)

[...]

 eigenvalue-minimisations  : 22080
 total energy-change (2. order) : 0.3022478E-07  (-0.5859371E-07)
 number of electron      29.9999999 magnetization
 augmentation part        0.4967305 magnetization

[...]

 d Force = 0.2905436E-06[-0.301E-06, 0.882E-06]  d Energy = 0.5337999E-06-0.243E-06
 d Force =-0.1423318E-03[-0.144E-03,-0.140E-03]  d Ewald  =-0.1423317E-03-0.696E-10

 stress matrix after NEB project (eV)
     -0.16943     -0.00057      0.00000
     -0.00057     -0.17014      0.00000
      0.00000      0.00000     -0.18810
  FORCES: max atom, RMS     0.001585    0.001200
  FORCE total and by dimension    0.003393    0.001303
  Stress total and by dimension    0.305017    0.188097
 Conjugate gradient step on ions:
 trial-energy change:   -0.000001  1 .order   -0.000000   -0.000001    0.000000
  (g-gl).g =-0.195E-05      g.g   = 0.197E-05  gl.gl    = 0.598E-04
 g(Force)  = 0.197E-05   g(Stress)= 0.000E+00 ortho     = 0.573E-07
 gamma     =  -0.03263
 trial     =   0.44900
 opt step  =   0.33470  (harmonic =   0.33470) maximal distance =0.00008238
 next E    =   -67.907756   (d E  =  -0.00000)

[...]

 Broyden mixing:
  rms(total) = 0.31639E-04    rms(broyden)= 0.31484E-04
  rms(prec ) = 0.39489E-04
  weight for this iteration     100.00

[...]

--------------------------------------- Iteration      9(   2)  ---------------------------------------

 eigenvalue-minimisations  : 22128
 total energy-change (2. order) :-0.2117304E-08  (-0.4522914E-08)
 number of electron      29.9999999 magnetization
 augmentation part        0.4967292 magnetization

 Free energy of the ion-electron system (eV)
  alpha Z        PSCENC =        14.61461864
  Ewald energy   TEWEN  =      2603.47379661
  -Hartree energ DENC   =     -3498.85784457
  -exchange      EXHF   =         0.00000000
  -V(xc)+E(xc)   XCENC  =        96.07901086
  PAW double counting   =      2906.41445045    -2908.94697076
  entropy T*S    EENTRO =        -0.00000006
  eigenvalues    EBANDS =      -305.21067973
  atomic energy  EATOM  =      1025.20389953
  Solvation  Ediel_sol  =         0.00000000
  free energy    TOTEN  =       -67.22971904 eV

  energy without entropy =      -67.22971898  energy(sigma->0) =      -67.22971901

 average (electrostatic) potential at core
  the test charge radii are     0.7672  0.6991
  (the norm of the test charge is              1.0000)
       1 -34.5612       2 -34.5612       3 -57.0714       4 -57.0714       5 -57.0714
       6 -57.0714       7 -57.0714       8 -57.0714

 E-fermi :  -3.4792     XC(G=0):  -2.7868     alpha+bet : -2.3721

 Fermi energy:        -3.4791975561

[...]

 k-point   145 :       0.3529    0.3529    0.0000
  band No.  band energies     occupation
      1     -19.2196      2.00000
      2     -17.3556      2.00000
      3     -17.1971      2.00000
      4     -13.0075      2.00000
      5     -12.7020      2.00000
      6     -10.8641      2.00000
      7      -8.5745      2.00000
      8      -8.3141      2.00000
      9      -7.9371      2.00000
     10      -7.3908      2.00000
     11      -7.2393      2.00000
     12      -6.3543      2.00000
     13      -6.2605      2.00000
     14      -6.0612      2.00000
     15      -6.0206      2.00000
     16      -1.6093      0.00000
     17      -1.1342      0.00000
     18       3.1494      0.00000
     19       3.1658      0.00000
     20       3.5866      0.00000
     21       3.7035      0.00000
     22       3.9340      0.00000
     23       4.2514      0.00000
     24       4.2611      0.00000
     25       4.6096      0.00000
     26       4.6126      0.00000
     27       4.7182      0.00000
     28       4.9379      0.00000
     29       5.0477      0.00000
     30       6.4293      0.00000
     31       6.5889      0.00000
     32       6.9268      0.00000
     33       7.1765      0.00000
     34       7.2030      0.00000
     35       7.2594      0.00000
     36       7.6311      0.00000
     37       7.8040      0.00000
     38       7.9035      0.00000
     39       7.9987      0.00000
     40       9.2701      0.00000
     41       9.4479      0.00000
     42       9.8578      0.00000
     43      10.0894      0.00000
     44      10.2188      0.00000
     45      10.2538      0.00000
     46      10.3190      0.00000
     47      10.5704      0.00000
     48      10.7031      0.00000

 soft charge-density along one line, spin component           1
         0         1         2         3         4         5         6         7         8         9
 total charge-density along one line

------------------------ aborting loop because EDIFF is reached ----------------------------------------

         DFTD3 V3.0 Rev 1
 Edisp (eV)   -0.67804

 E6    (eV) :    -0.4579
 E8    (eV) :    -0.2201
 % E8        : 32.46

  FORCE on cell =-STRESS in cart. coord.  units (eV):
  Direction    XX          YY          ZZ          XY          YZ          ZX
  Alpha Z    14.61462    14.61462    14.61462
  Ewald    3501.19806  3501.18242 -4398.90803    -0.00591     0.00000    -0.00000
  Hartree  3440.13438  3440.13260 -3381.40990    -0.00059    -0.00000     0.00000
  E(xc)    -107.49119  -107.49124  -111.32330    -0.00002     0.00000    -0.00000
  Local   -7258.19241 -7258.17861  7443.59103     0.00522    -0.00000    -0.00000
  n-local   -21.69623   -21.69641   -10.37216    -0.00007    -0.00000     0.00000
  augment    -1.80631    -1.80622    -1.79655    -0.00000    -0.00000    -0.00000
  Kinetic   433.61276   433.61524   445.42214     0.00080    -0.00000    -0.00000
  Fock        0.00000     0.00000     0.00000     0.00000     0.00000     0.00000
  vdW        -0.54285    -0.54284    -0.00593     0.00000     0.00000     0.00000
  Total      -0.16917    -0.17045    -0.18807    -0.00057     0.00000     0.00000
  in kB      -0.78092    -0.78679    -0.86817    -0.00261     0.00000     0.00000

 VOLUME and BASIS-vectors are now :
  energy-cutoff  :      450.00
  volume of cell :      347.08
      direct lattice vectors                 reciprocal lattice vectors
     4.476485000  2.584500000  0.000000000     0.111694778  0.193461018  0.000000000
    -4.476485000  2.584500000  0.000000000    -0.111694778  0.193461018  0.000000000
     0.000000000  0.000000000 15.000000000     0.000000000  0.000000000  0.066666667

  length of vectors
     5.168999730  5.168999730 15.000000000     0.223389545  0.223389545  0.066666667

 FORCES acting on ions
    electron-ion (+dipol)            ewald-force                    non-local-force                 convergence-correction
   -.113E-02 -.637E-03 0.178E-06   0.148E-02 0.859E-03 0.728E-18   0.108E-03 0.172E-03 -.129E-25   -.837E-06 0.114E-04 0.292E-12
   -.150E-02 -.343E-04 0.211E-07   0.149E-02 -.449E-04 -.751E-18   0.401E-03 -.268E-04 0.646E-26   0.725E-04 0.135E-06 0.633E-12
   0.256E+02 -.443E+02 -.228E-06   -.276E+02 0.478E+02 -.157E-18   0.201E+01 -.348E+01 0.000E+00   -.200E-04 -.431E-05 0.613E-12
   -.256E+02 -.443E+02 -.399E-06   0.276E+02 0.478E+02 -.717E-18   -.201E+01 -.348E+01 0.207E-24   -.133E-04 -.496E-04 0.742E-12
   -.511E+02 0.169E-02 0.424E-07   0.551E+02 -.212E-02 0.611E-18   -.402E+01 -.761E-04 0.000E+00   0.179E-04 0.307E-04 0.833E-12
   0.511E+02 -.118E-02 -.163E-06   -.551E+02 0.147E-02 -.201E-18   0.402E+01 0.383E-03 0.103E-24   -.722E-04 -.524E-04 0.114E-11
   0.256E+02 0.443E+02 0.258E-06   -.276E+02 -.478E+02 0.713E-18   0.201E+01 0.348E+01 -.258E-25   -.338E-04 0.420E-04 0.474E-12
   -.256E+02 0.443E+02 0.574E-09   0.276E+02 -.478E+02 -.251E-18   -.201E+01 0.348E+01 -.162E-26   -.589E-04 0.100E-04 0.934E-12
   -.102E-04 -.510E-04 -.289E-06   0.711E-14 0.711E-14 -.270E-19   0.413E-03 0.587E-03 0.276E-24   -.109E-03 -.120E-04 0.566E-11

 POSITION                                       TOTAL-FORCE (eV/Angst)
     -1.48097      2.60388      3.75000         0.000415      0.000341      0.000000
      1.50333      2.60388      3.75000         0.000432     -0.000171     -0.000000
     -0.69945      1.25025      3.75000        -0.000847     -0.000455     -0.000000
      0.72183      1.25025      3.75000         0.000465      0.000197     -0.000000
     -3.04398      2.60389      3.75000        -0.000697     -0.000547     -0.000000
      3.06637      2.60387      3.75000         0.000468      0.000551      0.000000
     -0.69944      3.95751      3.75000        -0.000833     -0.000240      0.000000
      0.72184      3.95751      3.75000         0.000596      0.000325     -0.000000
    total drift:                                0.000294      0.000524     -0.000000

  FREE ENERGIE OF THE ION-ELECTRON SYSTEM (eV)
  free  energy   TOTEN  =       -67.90775618 eV

  energy  without entropy=      -67.90775612  energy(sigma->0) =      -67.90775615

 d Force = 0.4049195E-07[ 0.427E-08, 0.767E-07]  d Energy = 0.5319868E-07-0.127E-07
 d Force = 0.3660449E-04[ 0.365E-04, 0.367E-04]  d Ewald  = 0.3660448E-04 0.364E-11

 stress matrix after NEB project (eV)
     -0.16917     -0.00057      0.00000
     -0.00057     -0.17045      0.00000
      0.00000      0.00000     -0.18807
  FORCES: max atom, RMS     0.000961    0.000725
  FORCE total and by dimension    0.002050    0.000847
  Stress total and by dimension    0.305030    0.188074

 reached required accuracy - stopping structural energy minimisation