 vasp.6.3.2 27Jun22 (build May 31 2023 12:07:17) complex

 executed on             LinuxIFC date 2024.03.20  04:37:54

 INCAR:
   SYSTEM = PDoS_HSE06
   ISTART = 1
   ICHARG = 2
   PREC = Accurate
   LORBIT = 11
   NEDOS = 4000
   ENCUT = 450
   ALGO = Damped
   TIME = 0.4
   NELM = 200
   EDIFF = 1E-6
   EDIFFG = -1E-3
   SIGMA = 0.1
   ISMEAR = 0
   IBRION = -1
   GGA = PE
   LHFCALC = .TRUE.
   AEXX = 0.25
   HFSCREEN = 0.2
   NKRED = 1

 POTCAR:    PAW_PBE B 06Sep2000
 POTCAR:    PAW_PBE C 08Apr2002
|           W    W    AA    RRRRR   N    N  II  N    N   GGGG   !!!           |
|           W    W   A  A   R    R  NN   N  II  NN   N  G    G  !!!           |
|           W    W  A    A  R    R  N N  N  II  N N  N  G       !!!           |
|           W WW W  AAAAAA  RRRRR   N  N N  II  N  N N  G  GGG   !            |
|           WW  WW  A    A  R   R   N   NN  II  N   NN  G    G                |
|           W    W  A    A  R    R  N    N  II  N    N   GGGG   !!!           |
|     For optimal performance we recommend to set                             |
|       NCORE = 2 up to number-of-cores-per-socket                            |
|     This setting can greatly improve the performance of VASP for DFT.       |
|     The default, NCORE=1 might be grossly inefficient on modern             |
|     multi-core architectures or massively parallel machines. Do your        |
|     Unfortunately you need to use the default for GW and RPA                |
|     calculations (for HF NCORE is supported but not extensively tested      |
|     yet).                                                                   |

   TITEL  = PAW_PBE B 06Sep2000
   POMASS =   10.811; ZVAL   =    3.000    mass and valenz
   ENMAX  =  318.614; ENMIN  =  238.960 eV

   TITEL  = PAW_PBE C 08Apr2002
   POMASS =   12.011; ZVAL   =    4.000    mass and valenz
   ENMAX  =  400.000; ENMIN  =  300.000 eV

  PAW_PBE B 06Sep2000                   :
  PAW_PBE C 08Apr2002                   :

 POSCAR: Graphene-Borophene Top with lattice para
  positions in direct lattice
  velocities in cartesian coordinates
 exchange correlation table for  LEXCH =        8
   RHO(1)=    0.500       N(1)  =     2000
   RHO(2)=  100.500       N(2)  =     4000

 ion  position               nearest neighbor table
   1  0.669  0.000  0.101-   3 1.65   6 1.65   7 1.68   8 1.68   2 1.68
   2  0.332  0.000  0.101-   5 1.65   4 1.65   7 1.68   8 1.68   1 1.68
   3  1.000  0.331  0.101-   1 1.65   5 1.65   7 1.68   8 1.68   4 1.68
   4  1.000  0.668  0.101-   6 1.65   2 1.65   7 1.68   8 1.68   3 1.68
   5  0.332  0.331  0.101-   2 1.65   3 1.65   7 1.68   8 1.68   6 1.68
   6  0.669  0.668  0.101-   4 1.65   1 1.65   7 1.68   8 1.68   5 1.68
   7  0.667  0.333  0.088-   5 1.68   6 1.68   2 1.68   1 1.68   4 1.68   3 1.68
   8  0.333  0.667  0.114-   5 1.68   6 1.68   3 1.68   4 1.68   1 1.68   2 1.68
   9  0.167  0.333  0.335-  14 1.44  10 1.44  12 1.44
  10  0.333  0.167  0.334-  11 1.44   9 1.44  13 1.44
  11  0.167  0.833  0.335-  10 1.44  16 1.44  12 1.44
  12  0.333  0.667  0.335-   9 1.44  15 1.44  11 1.44
  13  0.667  0.333  0.334-  10 1.44  16 1.44  14 1.44
  14  0.833  0.167  0.334-   9 1.44  15 1.44  13 1.44
  15  0.667  0.833  0.335-  14 1.44  16 1.44  12 1.44
  16  0.833  0.667  0.334-  11 1.44  15 1.44  13 1.44

  LATTYP: Found a hexagonal cell.
 ALAT       =     4.9790000000
 C/A-ratio  =     3.0126531432

  Lattice vectors:

 A1 = (   4.3119404854,   2.4895000000,   0.0000000000)
 A2 = (  -4.3119404854,   2.4895000000,   0.0000000000)
 A3 = (   0.0000000000,   0.0000000000,  15.0000000000)

Analysis of symmetry for initial positions (statically):
 Subroutine PRICEL returns:
 Original cell was already a primitive cell.

 Routine SETGRP: Setting up the symmetry group for a
 hexagonal supercell.

 Subroutine GETGRP returns: Found  6 space group operations
 (whereof  6 operations were pure point group operations)
 out of a pool of 24 trial point group operations.

The static configuration has the point symmetry C_3v.

Analysis of symmetry for dynamics (positions and initial velocities):
 Subroutine PRICEL returns:
 Original cell was already a primitive cell.

 Routine SETGRP: Setting up the symmetry group for a
 hexagonal supercell.

 Subroutine GETGRP returns: Found  6 space group operations
 (whereof  6 operations were pure point group operations)
 out of a pool of 24 trial point group operations.

The dynamic configuration has the point symmetry C_3v.

 Subroutine INISYM returns: Found  6 space group operations
 (whereof  6 operations are pure point group operations),
 and found     1 'primitive' translations

                                     Primitive cell

  volume of cell :     322.0373

  direct lattice vectors                    reciprocal lattice vectors
     4.311940485  2.489500000  0.000000000     0.115957074  0.200843543  0.000000000
    -4.311940485  2.489500000  0.000000000    -0.115957074  0.200843543  0.000000000
     0.000000000  0.000000000 15.000000000     0.000000000  0.000000000  0.066666667

  length of vectors
     4.979000000  4.979000000 15.000000000     0.231914147  0.231914147  0.066666667

  position of ions in fractional coordinates (direct lattice)
     0.668529486  0.000031744  0.101490874
     0.331501257  0.000031744  0.101490874
     0.999968256  0.331469514  0.101490874
     0.999968256  0.668497743  0.101490874
     0.331501257  0.331469514  0.101490874
     0.668529486  0.668497743  0.101490874
     0.666666000  0.333333000  0.088455217
     0.333333000  0.666666000  0.114424057
     0.166653576  0.333308152  0.334568638
     0.333330518  0.166664759  0.334466239
     0.166653576  0.833345424  0.334568638
     0.333333000  0.666666000  0.334626021
     0.666666000  0.333333000  0.334444829
     0.833334241  0.166664759  0.334466239
     0.666690848  0.833345424  0.334568638
     0.833334241  0.666668482  0.334466239

  ion indices of the primitive-cell ions
   primitive index   ion index
                 1           1
                 2           2
                 3           3
                 4           4
                 5           5
                 6           6
                 7           7
                 8           8
                 9           9
                10          10
                11          11
                12          12
                13          13
                14          14
                15          15
                16          16

 KPOINTS: k-points

Automatic generation of k-mesh.
 Grid dimensions read from file:
 generate k-points for:   17   17    1

 Generating k-lattice:

  Cartesian coordinates                     Fractional coordinates (reciprocal lattice)
     0.006821004  0.011814326  0.000000000     0.058823529 -0.000000000  0.000000000
    -0.006821004  0.011814326  0.000000000    -0.000000000  0.058823529  0.000000000
     0.000000000  0.000000000  0.066666667     0.000000000  0.000000000  1.000000000

  Length of vectors
     0.013642009  0.013642009  0.066666667

  Shift w.r.t. Gamma in fractional coordinates (k-lattice)
     0.000000000  0.000000000  0.000000000

 Subroutine IBZKPT returns following result:

 Found     33 irreducible k-points:

 Following reciprocal coordinates:
            Coordinates               Weight
  0.000000  0.000000  0.000000      1.000000
  0.058824  0.000000  0.000000      6.000000
  0.117647 -0.000000  0.000000      6.000000
  0.176471 -0.000000  0.000000      6.000000
  0.235294 -0.000000  0.000000      6.000000
  0.294118  0.000000  0.000000      6.000000
  0.352941  0.000000  0.000000      6.000000
  0.411765 -0.000000  0.000000      6.000000
  0.470588 -0.000000  0.000000      6.000000
  0.058824  0.058824  0.000000      6.000000
  0.117647  0.058824  0.000000     12.000000
  0.176471  0.058824  0.000000     12.000000
  0.235294  0.058824  0.000000     12.000000
  0.294118  0.058824  0.000000     12.000000
  0.352941  0.058824  0.000000     12.000000
  0.411765  0.058824  0.000000     12.000000
  0.470588  0.058824  0.000000      6.000000
  0.117647  0.117647  0.000000      6.000000
  0.176471  0.117647  0.000000     12.000000
  0.235294  0.117647  0.000000     12.000000
  0.294118  0.117647  0.000000     12.000000
  0.352941  0.117647  0.000000     12.000000
  0.411765  0.117647  0.000000     12.000000
  0.176471  0.176471  0.000000      6.000000
  0.235294  0.176471  0.000000     12.000000
  0.294118  0.176471  0.000000     12.000000
  0.352941  0.176471  0.000000     12.000000
  0.411765  0.176471  0.000000      6.000000
  0.235294  0.235294  0.000000      6.000000
  0.294118  0.235294  0.000000     12.000000
  0.352941  0.235294  0.000000     12.000000
  0.294118  0.294118  0.000000      6.000000
  0.352941  0.294118  0.000000      6.000000

 Following cartesian coordinates:
            Coordinates               Weight
  0.000000  0.000000  0.000000      1.000000
  0.006821  0.011814  0.000000      6.000000
  0.013642  0.023629  0.000000      6.000000
  0.020463  0.035443  0.000000      6.000000
  0.027284  0.047257  0.000000      6.000000
  0.034105  0.059072  0.000000      6.000000
  0.040926  0.070886  0.000000      6.000000
  0.047747  0.082700  0.000000      6.000000
  0.054568  0.094515  0.000000      6.000000
  0.000000  0.023629  0.000000      6.000000
  0.006821  0.035443  0.000000     12.000000
  0.013642  0.047257  0.000000     12.000000
  0.020463  0.059072  0.000000     12.000000
  0.027284  0.070886  0.000000     12.000000
  0.034105  0.082700  0.000000     12.000000
  0.040926  0.094515  0.000000     12.000000
  0.047747  0.106329  0.000000      6.000000
  0.000000  0.047257  0.000000      6.000000
  0.006821  0.059072  0.000000     12.000000
  0.013642  0.070886  0.000000     12.000000
  0.020463  0.082700  0.000000     12.000000
  0.027284  0.094515  0.000000     12.000000
  0.034105  0.106329  0.000000     12.000000
  0.000000  0.070886  0.000000      6.000000
  0.006821  0.082700  0.000000     12.000000
  0.013642  0.094515  0.000000     12.000000
  0.020463  0.106329  0.000000     12.000000
  0.027284  0.118143  0.000000      6.000000
  0.000000  0.094515  0.000000      6.000000
  0.006821  0.106329  0.000000     12.000000
  0.013642  0.118143  0.000000     12.000000
  0.000000  0.118143  0.000000      6.000000
  0.006821  0.129958  0.000000      6.000000

 Subroutine IBZKPT_HF returns following result:

 Found    289 k-points in 1st BZ
 the following    289 k-points will be used (e.g. in the exchange kernel)
 Following reciprocal coordinates:   # in IRBZ
  0.000000  0.000000  0.000000    0.00346021   1 t-inv F
  0.058824  0.000000  0.000000    0.00346021   2 t-inv F
  0.117647 -0.000000  0.000000    0.00346021   3 t-inv F
  0.176471 -0.000000  0.000000    0.00346021   4 t-inv F
  0.235294 -0.000000  0.000000    0.00346021   5 t-inv F
  0.294118  0.000000  0.000000    0.00346021   6 t-inv F
  0.352941  0.000000  0.000000    0.00346021   7 t-inv F
  0.411765 -0.000000  0.000000    0.00346021   8 t-inv F
  0.470588 -0.000000  0.000000    0.00346021   9 t-inv F
  0.058824  0.058824  0.000000    0.00346021  10 t-inv F
  0.117647  0.058824  0.000000    0.00346021  11 t-inv F
[...]
 apply_gfac_exchange                 10152.714977    60426432
 racc0mu_hf_                          6518.847942     1268421
 rpromu_hf                            6303.975721     1297032
 fock_set_gfac_vkpt                   2682.581643     1268421
 phaser_hf                             790.287791     1268421
 depsum_two_bands_rholm_trace_         624.530398    60703005
 fock_fwd                              619.556108        4356
 calc_dllmm_trans                      551.334704    62085870
 m_ibcast_z_from                       523.184367      422961
 lapack                                324.330790        5787
 m_sumb_d                              241.927248       35470
 m_alltoall_d                          172.234934       77352
 overl_fock                            151.356209    60426432
 fft3d_mpi                              98.584107    ********
 fock_all_dblbuf                        74.281282          66
 fock_set_fsg                           53.642618           8
 pdssyex_zheevx                         43.530953         759
 total_time                             32.925509           1
 depsum_two_bands_rholm_trace_m         29.964820     1268421
 depsum_two_bands_rholm_trace           29.486444    60703005
 fftwav                                 28.657147      155079
 apply_gfac_weight                      23.941397      276573
 m_bcast_z                              21.520976       21628
 bg_ppotrf_trtri                        19.303158        2442
 phase                                  14.784214        4486
 w1_copy                                14.391062      167106
 waitgth                                 9.502206        4356
 orth1                                   8.788065       16941
 gemm                                    8.268549      139056
 vhamil                                  8.029878        6546
 waitred                                 7.648907        4356
 edwav                                   6.332865          22
 dllmm_trans_eccp_nl_fock                6.049155       28611
 eccp_nl_fock                            5.845155    13275504
 fock_charge_mu                          5.151827     1268421
 work_mul_crexp                          4.022097      139056
 orth1_nosubindex                        3.972915        2442
 eddav                                   3.836304          43
 wfinit                                  3.587566           5
 wrk_allocate                            3.387994           1
 proj1                                   3.112294        5631
 racc0mu_hf                              2.934924     1268421
 eccp                                    2.827279        3357
 crexp_mul_wave                          2.668829       90096
 fock_ace_acc_apply                      2.575803        5787
 fock_force                              2.555523           1
 pw_charge                               2.509869        6647
 sphpro_fast                             2.472866           6
 dfftw_execute                           2.311833        1077
 ggemm                                   2.220125        5787
 pw_charge_trace_mu                      2.178000     1268421
 fftbas_plan_mpi                         2.027973         359
 m_alltoallv_z                           1.404548         405
 soft_charge_sym                         1.244663          23
 depsum_two_bands_rholm_trace_m          1.029171     1268421
 spher                                   0.873713          11
 w1_dot                                  0.786971        1179
 elmin_all                               0.690325           1
 distri_slice                            0.599573        2442
 fft_and_gather                          0.596939        4389
 lincom_slice                            0.491807        2442
 fock_bck                                0.457662        4356
 m_bcast_d                               0.405272       11600
 ggaall_grid                             0.389738          24
 redis_pw                                0.382724       40146
 lincom                                  0.324589        1485
 fornl                                   0.304546           1
 apply_precond                           0.292625        4608
 reduce                                  0.258605        4356
 potlok                                  0.244916          23
 fftext_mpi                              0.235426        8724
 hamiltmu                                0.234361        5787
 w1_dscal                                0.222820         726
 vnlac0                                  0.217450        8691
 force_and_stress                        0.210634           1
 orthch                                  0.200800          27
 densta                                  0.188483          25
 projxyz                                 0.173715          33
 w1_daxpy                                0.173628        5787
 fftwav_mpi                              0.158287      155079
 kinhamil                                0.154034        6546
 eddiag                                  0.146955           1
 redis_proj                              0.122587       37206
 inisym                                  0.113195           1
 depsum_sym                              0.079193          23
 FERMAT_RAZOR                            0.050331           1
 overl1                                  0.049973        7965
 overl                                   0.042679       13629
 brgrid                                  0.039591           1
 orth1_distri                            0.037500        2442
 recon_slice                             0.036404        2442
 setdij_                                 0.031996          31
 contraction                             0.026545       28611
 newband                                 0.018804        6966
 set_dd_paw                              0.018014          24
 choleski                                0.017593        2442
 lincom_distri                           0.016777        2442
 proj                                    0.016661         297
 rspher_all                              0.016246           4
 fock_ace_construct                      0.015243          43
 setup_precond                           0.013321        1179
 crpa_reader                             0.012829           1
 augmentation_charge                     0.010559          23
 map_gather                              0.009831         405
 map_scatter                             0.009229         405
 w1_projall                              0.008586        4608
 m_sum_g                                 0.003663        4884
 hamilt_local                            0.003318         759
 pothar                                  0.002541          23
 fft_gq                                  0.002231          23
 truncate_high_frequency_w1              0.002098        6966
 forhar                                  0.002072           1
 set_charge                              0.001481          23
 fewald                                  0.001476           1
 vectorpot                               0.001059           1
 forloc                                  0.001046           1
 posmap                                  0.001015           2
 proall                                  0.000801           5
 map_backward                            0.000582         380
 redis_pw_all                            0.000530          22
 rotate_active_occupied_orbital          0.000486           1
 map_forward                             0.000485         338
 stufak                                  0.000457           1
 set_dd_magatom                          0.000363           2
 fftbrc_mpi                              0.000267         359
 rsp                                     0.000164           1
 wrk_deallocate                          0.000056           1
 rcp                                     0.000037           1
 redis_pw_over_bands                     0.000027          23
 fordep                                  0.000014           1
 potlok_metagga                          0.000010          23
 shift_bands_between_low_high            0.000004          33
  summed up times    144052.568354845

 Accumulative profile

 total_time                         144052.568355           1
 fock_all_dblbuf                    142352.862417          66
 fock_fwd                           121992.207981        4356
 fft3d                               64584.615516    ********
 fft3d_mpi                           64559.141989    ********
 elmin_all                           49769.193671           1
 edwav                               47444.670556          22
 fock_charge_mu                      22404.854556     1268421
 reduce                              19773.709708        4356
 m_ireduce_z_to                      19773.451103      418176
 pw_charge_trace_mu                  15192.909031     1268421
 pw_charge_trace_mu_                 15190.731030     1268421
 vhamil_trace                        14233.140436    60426432
 apply_gfac_exchange                 10152.714977    60426432
 racc0mu_hf                           6521.782866     1268421
 racc0mu_hf_                          6518.847942     1268421
 rpromu_hf                            6303.975721     1297032
 fock_set_gfac_vkpt                   3472.869434     1268421
 eddiag                               2298.765386           1
 phaser_hf                             790.287791     1268421
 eddav                                 715.683818          43
 force_and_stress                      685.378879           1
 depsum_two_bands_rholm_trace_m        685.010832     1268421
 fock_force                            684.012449           1
 depsum_two_bands_rholm_trace_m        683.981661     1268421
 depsum_two_bands_rholm_trace          654.016842    60703005
 depsum_two_bands_rholm_trace_         624.530398    60703005
 calc_dllmm_trans                      551.334704    62085870
 fft_and_gather                        534.937146        4389
 m_ibcast_z_from                       523.184367      422961
 lapack                                324.330790        5787
 m_sumb_d                              241.927248       35470
 m_alltoall_d                          172.234934       77352
 fftwav_mpi                            158.637815      155079
 fftwav                                158.479529      155079
 overl_fock                            151.356209    60426432
 redis_pw                              129.811280       40146
 fock_ace_acc_apply                     62.213527        5787
 fock_set_fsg                           53.642618           8
 pdssyex_zheevx                         43.530953         759
 fock_ace_construct                     43.420303          43
 redis_proj                             42.928966       37206
 fftext_mpi                             34.039731        8724
 fock_bck                               27.182105        4356
 dllmm_trans_eccp_nl_fock               25.866343       28611
 hamiltmu                               24.366725        5787
 apply_gfac_weight                      23.941397      276573
 set_charge                             22.846750          23
 soft_charge_sym                        22.237577          23
 m_bcast_z                              21.520976       21628
 choleski                               19.320751        2442
 bg_ppotrf_trtri                        19.303158        2442
 m_sum_g                                15.103127        4884
 phase                                  14.784214        4486
 orthch                                 14.681193          27
 w1_copy                                14.391062      167106
 orth1_distri                           13.247510        2442
 kinhamil                               12.556610        6546
 vnlac0                                 12.508096        8691
 wrk_allocate                            9.976635           1
 newband                                 9.503695        6966
 waitgth                                 9.502206        4356
 orth1                                   8.788065       16941
 gemm                                    8.268549      139056
 vhamil                                  8.029878        6546
 waitred                                 7.648907        4356
 lincom_distri                           7.010592        2442
 wfinit                                  6.753336           5
 eccp_nl_fock                            5.845155    13275504
 proj1                                   5.781123        5631
 fftbrc_mpi                              5.764748         359
 fftbas_plan_mpi                         5.764481         359
 w1_projall                              4.691767        4608
 work_mul_crexp                          4.022097      139056
 orth1_nosubindex                        3.972915        2442
 fft_gq                                  3.310204          23
 hamilt_local                            3.005566         759
 eccp                                    2.827279        3357
 crexp_mul_wave                          2.668829       90096
 sphpro_fast                             2.608642           6
 redis_pw_over_bands                     2.556573          23
 redis_pw_all                            2.556546          22
 pw_charge                               2.509869        6647
 dfftw_execute                           2.311833        1077
 ggemm                                   2.220125        5787
 potlok                                  2.118236          23
 m_alltoallv_z                           1.404548         405
 proall                                  1.325169           5
 map_backward                            1.006086         380
 set_dd_paw                              0.934598          24
 spher                                   0.873713          11
 w1_dot                                  0.786971        1179
 fornl                                   0.723420           1
 distri_slice                            0.599573        2442
 lincom_slice                            0.491807        2442
 augmentation_charge                     0.434842          23
 map_forward                             0.418588         338
 m_bcast_d                               0.405272       11600
 ggaall_grid                             0.389738          24
 densta                                  0.352415          25
 lincom                                  0.324589        1485
 apply_precond                           0.292625        4608
 proj                                    0.289941         297
 w1_dscal                                0.222820         726
 projxyz                                 0.173720          33
 w1_daxpy                                0.173628        5787
 depsum_sym                              0.172850          23
 inisym                                  0.114210           1
 setdij_                                 0.059019          31
 FERMAT_RAZOR                            0.050331           1
 overl1                                  0.049973        7965
 overl                                   0.042679       13629
 brgrid                                  0.039591           1
 recon_slice                             0.036404        2442
 contraction                             0.026545       28611
 rspher_all                              0.016246           4
 pothar                                  0.014621          23
 setup_precond                           0.013321        1179
 crpa_reader                             0.012829           1
 map_gather                              0.009831         405
 map_scatter                             0.009229         405
 fordep                                  0.005503           1
 forhar                                  0.003367           1
 truncate_high_frequency_w1              0.002098        6966
 forloc                                  0.001986           1
 fewald                                  0.001927           1
 vectorpot                               0.001059           1
 posmap                                  0.001015           2
 rotate_active_occupied_orbital          0.000486           1
 stufak                                  0.000457           1
 set_dd_magatom                          0.000363           2
 rsp                                     0.000164           1
 wrk_deallocate                          0.000056           1
 rcp                                     0.000037           1
 potlok_metagga                          0.000010          23
 shift_bands_between_low_high            0.000004          33

Profiling took 144.244060 85.034937  0.095207  0.095112 seconds
Profiling took 137.028968 seconds