 vasp.6.3.2 27Jun22 (build Dec 22 2022 13:13:19) complex

 executed on             LinuxIFC date 2023.11.03  13:48:31

 INCAR:
   SYSTEM = SC
   ISTART = 0
   ICHARG = 2
   PREC = Accurate
   ENCUT = 450
   LCHARG = .TRUE.
   LWAVE = .TRUE.
   ALGO = Normal
   NELM = 64
   EDIFF = 1E-6
   EDIFFG = -1E-3
   SIGMA = 0.1
   ISMEAR = 0
   SYMPREC = 1E-6
   IBRION = -1
   GGA = PE
   IVDW = 12

 POTCAR:    PAW_PBE B 06Sep2000
 POTCAR:    PAW_PBE C 08Apr2002
 POTCAR:    PAW_PBE B 06Sep2000
   VRHFIN =B: s2p1

   TITEL  = PAW_PBE B 06Sep2000
   POMASS =   10.811; ZVAL   =    3.000    mass and valenz
   ENMAX  =  318.614; ENMIN  =  238.960 eV

   TITEL  = PAW_PBE C 08Apr2002
   POMASS =   12.011; ZVAL   =    4.000    mass and valenz
   ENMAX  =  400.000; ENMIN  =  300.000 eV

  PAW_PBE B 06Sep2000                   :
  PAW_PBE C 08Apr2002                   :

 POSCAR: BC3 with lattice parameter 5.169
  positions in direct lattice
  velocities in cartesian coordinates
 exchange correlation table for  LEXCH =        8
   RHO(1)=    0.500       N(1)  =     2000
   RHO(2)=  100.500       N(2)  =     4000

 VTST: version 4.2, (08/11/21)

 CHAIN: initializing optimizer

 OPT: Using VASP Dynamics algorithm
 CHAIN: Read ICHAIN            0

 POSCAR: BC3 with lattice parameter 5.169
  positions in direct lattice
  velocities in cartesian coordinates

 ion  position               nearest neighbor table
   1  0.338  0.669  0.250-   5 1.56   3 1.56   7 1.56
   2  0.672  0.336  0.250-   6 1.56   4 1.56   8 1.56
   3  0.164  0.320  0.250-   6 1.42   4 1.42   1 1.56
   4  0.322  0.161  0.250-   5 1.42   3 1.42   2 1.56
   5  0.164  0.844  0.250-   4 1.42   8 1.42   1 1.56
   6  0.846  0.161  0.250-   7 1.42   3 1.42   2 1.56
   7  0.688  0.844  0.250-   6 1.42   8 1.42   1 1.56
   8  0.846  0.685  0.250-   7 1.42   5 1.42   2 1.56

  LATTYP: Found a hexagonal cell.
 ALAT       =     5.1689997297
 C/A-ratio  =     2.9019154158

  Lattice vectors:

 A1 = (   4.4764850000,   2.5845000000,   0.0000000000)
 A2 = (  -4.4764850000,   2.5845000000,   0.0000000000)
 A3 = (   0.0000000000,   0.0000000000,  15.0000000000)

Analysis of symmetry for initial positions (statically):
 Subroutine PRICEL returns:
 Original cell was already a primitive cell.

 Routine SETGRP: Setting up the symmetry group for a
 hexagonal supercell.

 Subroutine GETGRP returns: Found  2 space group operations
 (whereof  1 operations were pure point group operations)
 out of a pool of 24 trial point group operations.

The static configuration has the point symmetry C_1 .
 The point group associated with its full space group is C_1h.

Analysis of symmetry for dynamics (positions and initial velocities):
 Subroutine PRICEL returns:
 Original cell was already a primitive cell.

 Routine SETGRP: Setting up the symmetry group for a
 hexagonal supercell.

 Subroutine GETGRP returns: Found  2 space group operations
 (whereof  1 operations were pure point group operations)
 out of a pool of 24 trial point group operations.

The dynamic configuration has the point symmetry C_1 .
 The point group associated with its full space group is C_1h.

 Subroutine INISYM returns: Found  2 space group operations
 (whereof  1 operations are pure point group operations),
 and found     1 'primitive' translations

                                     Primitive cell

  volume of cell :     347.0843

  direct lattice vectors                    reciprocal lattice vectors
     4.476485000  2.584500000  0.000000000     0.111694778  0.193461018  0.000000000
    -4.476485000  2.584500000  0.000000000    -0.111694778  0.193461018  0.000000000
     0.000000000  0.000000000 15.000000000     0.000000000  0.000000000  0.066666667

  length of vectors
     5.168999730  5.168999730 15.000000000     0.223389545  0.223389545  0.066666667

  position of ions in fractional coordinates (direct lattice)
     0.338334189  0.669165089  0.250000000
     0.671666315  0.335831896  0.250000000
     0.163745918  0.319999521  0.250000000
     0.322499481  0.161250266  0.250000000
     0.163754286  0.843749176  0.250000000
     0.846244180  0.161250584  0.250000000
     0.687500016  0.843750111  0.250000000
     0.846251614  0.684999356  0.250000000

  ion indices of the primitive-cell ions
   primitive index   ion index
                 1           1
                 2           2
                 3           3
                 4           4
                 5           5
                 6           6
                 7           7
                 8           8

 KPOINTS: k-points

Automatic generation of k-mesh.
 Grid dimensions read from file:
 generate k-points for:   17   17    1

 Generating k-lattice:

  Cartesian coordinates                     Fractional coordinates (reciprocal lattice)
     0.006570281  0.011380060  0.000000000     0.058823529  0.000000000  0.000000000
    -0.006570281  0.011380060  0.000000000     0.000000000  0.058823529  0.000000000
     0.000000000  0.000000000  0.066666667     0.000000000  0.000000000  1.000000000

  Length of vectors
     0.013140561  0.013140561  0.066666667

  Shift w.r.t. Gamma in fractional coordinates (k-lattice)
     0.000000000  0.000000000  0.000000000

 Subroutine IBZKPT returns following result:

 Found    145 irreducible k-points:

 Following reciprocal coordinates:
            Coordinates               Weight
  0.000000  0.000000  0.000000      1.000000
  0.058824  0.000000  0.000000      2.000000
  0.000000  0.058824  0.000000      2.000000
 -0.058824  0.058824  0.000000      2.000000
  0.117647 -0.000000  0.000000      2.000000
 -0.000000  0.117647  0.000000      2.000000
 -0.117647  0.117647  0.000000      2.000000
  0.176471 -0.000000  0.000000      2.000000
 -0.000000  0.176471  0.000000      2.000000
 -0.176471  0.176471  0.000000      2.000000
  0.235294 -0.000000  0.000000      2.000000
 -0.000000  0.235294  0.000000      2.000000
 -0.235294  0.235294  0.000000      2.000000
  0.294118 -0.000000  0.000000      2.000000
 -0.000000  0.294118  0.000000      2.000000
 -0.294118  0.294118  0.000000      2.000000
  0.352941  0.000000  0.000000      2.000000
  0.000000  0.352941  0.000000      2.000000
 -0.352941  0.352941  0.000000      2.000000
  0.411765  0.000000  0.000000      2.000000
  0.000000  0.411765  0.000000      2.000000
 -0.411765  0.411765  0.000000      2.000000
  0.470588 -0.000000  0.000000      2.000000
 -0.000000  0.470588  0.000000      2.000000
 -0.470588  0.470588  0.000000      2.000000
  0.058824  0.058824  0.000000      2.000000
 -0.058824  0.117647  0.000000      2.000000
 -0.117647  0.058824  0.000000      2.000000
  0.117647  0.058824  0.000000      2.000000
 -0.058824  0.176471  0.000000      2.000000
 -0.176471  0.117647  0.000000      2.000000
 -0.117647  0.176471  0.000000      2.000000
  0.058824  0.117647  0.000000      2.000000
  0.176471 -0.058824  0.000000      2.000000
  0.176471  0.058824  0.000000      2.000000
 -0.058824  0.235294  0.000000      2.000000
 -0.235294  0.176471  0.000000      2.000000
 -0.176471  0.235294  0.000000      2.000000
  0.058824  0.176471  0.000000      2.000000
  0.235294 -0.058824  0.000000      2.000000
  0.235294  0.058824  0.000000      2.000000
 -0.058824  0.294118  0.000000      2.000000
 -0.294118  0.235294  0.000000      2.000000
 -0.235294  0.294118  0.000000      2.000000
  0.058824  0.235294  0.000000      2.000000
  0.294118 -0.058824  0.000000      2.000000
  0.294118  0.058824  0.000000      2.000000
 -0.058824  0.352941  0.000000      2.000000
 -0.352941  0.294118  0.000000      2.000000
 -0.294118  0.352941  0.000000      2.000000
  0.058824  0.294118  0.000000      2.000000
  0.352941 -0.058824  0.000000      2.000000
  0.352941  0.058824  0.000000      2.000000
 -0.058824  0.411765  0.000000      2.000000
 -0.411765  0.352941  0.000000      2.000000
 -0.352941  0.411765  0.000000      2.000000
  0.058824  0.352941  0.000000      2.000000
  0.411765 -0.058824  0.000000      2.000000
  0.411765  0.058824  0.000000      2.000000
 -0.058824  0.470588  0.000000      2.000000
[...]
 -0.294118 -0.470588  0.000000      2.000000
  0.235294  0.294118  0.000000      2.000000
 -0.470588 -0.235294  0.000000      2.000000
  0.352941  0.235294  0.000000      2.000000
 -0.235294 -0.411765  0.000000      2.000000
  0.411765  0.352941  0.000000      2.000000
 -0.352941 -0.411765  0.000000      2.000000
  0.235294  0.352941  0.000000      2.000000
 -0.411765 -0.235294  0.000000      2.000000
  0.294118  0.294118  0.000000      2.000000
 -0.294118 -0.411765  0.000000      2.000000
  0.411765  0.294118  0.000000      2.000000
  0.352941  0.294118  0.000000      2.000000
 -0.294118 -0.352941  0.000000      2.000000
  0.352941  0.352941  0.000000      2.000000

 Following cartesian coordinates:
            Coordinates               Weight
  0.000000  0.000000  0.000000      1.000000
  0.006570  0.011380  0.000000      2.000000
 -0.006570  0.011380  0.000000      2.000000
 -0.013141  0.000000  0.000000      2.000000
  0.013141  0.022760  0.000000      2.000000
 -0.013141  0.022760  0.000000      2.000000
 -0.026281 -0.000000  0.000000      2.000000
  0.019711  0.034140  0.000000      2.000000
 -0.019711  0.034140  0.000000      2.000000
 -0.039422 -0.000000  0.000000      2.000000
  0.026281  0.045520  0.000000      2.000000
 -0.026281  0.045520  0.000000      2.000000
 -0.052562 -0.000000  0.000000      2.000000
  0.032851  0.056900  0.000000      2.000000
 -0.032851  0.056900  0.000000      2.000000
 -0.065703 -0.000000  0.000000      2.000000
  0.039422  0.068280  0.000000      2.000000
 -0.039422  0.068280  0.000000      2.000000
 -0.078843  0.000000  0.000000      2.000000
  0.045992  0.079660  0.000000      2.000000
 -0.045992  0.079660  0.000000      2.000000
 -0.091984  0.000000  0.000000      2.000000
  0.052562  0.091040  0.000000      2.000000
 -0.052562  0.091040  0.000000      2.000000
 -0.105124 -0.000000  0.000000      2.000000
  0.000000  0.022760  0.000000      2.000000
 -0.019711  0.011380  0.000000      2.000000
 -0.019711 -0.011380  0.000000      2.000000
  0.006570  0.034140  0.000000      2.000000
 -0.026281  0.022760  0.000000      2.000000
 -0.032851 -0.011380  0.000000      2.000000
 -0.032851  0.011380  0.000000      2.000000
 -0.006570  0.034140  0.000000      2.000000
  0.026281  0.022760  0.000000      2.000000
  0.013141  0.045520  0.000000      2.000000
 -0.032851  0.034140  0.000000      2.000000
 -0.045992 -0.011380  0.000000      2.000000
 -0.045992  0.011380  0.000000      2.000000
 -0.013141  0.045520  0.000000      2.000000
  0.032851  0.034140  0.000000      2.000000
  0.019711  0.056900  0.000000      2.000000
 -0.039422  0.045520  0.000000      2.000000
 -0.059133 -0.011380  0.000000      2.000000
 -0.059133  0.011380  0.000000      2.000000
 -0.019711  0.056900  0.000000      2.000000
  0.039422  0.045520  0.000000      2.000000
  0.026281  0.068280  0.000000      2.000000
 -0.045992  0.056900  0.000000      2.000000
 -0.072273 -0.011380  0.000000      2.000000
 -0.072273  0.011380  0.000000      2.000000
 -0.026281  0.068280  0.000000      2.000000
  0.045992  0.056900  0.000000      2.000000
[...]
 k-point   7 :  -0.1176 0.1176 0.0000  plane waves:    7517
 k-point   8 :   0.1765-0.0000 0.0000  plane waves:    7511
 k-point   9 :  -0.0000 0.1765 0.0000  plane waves:    7511
 k-point  10 :  -0.1765 0.1765 0.0000  plane waves:    7511
 k-point  11 :   0.2353-0.0000 0.0000  plane waves:    7499
 k-point  12 :  -0.0000 0.2353 0.0000  plane waves:    7499
 k-point  13 :  -0.2353 0.2353 0.0000  plane waves:    7499
 k-point  14 :   0.2941-0.0000 0.0000  plane waves:    7518
 k-point  15 :  -0.0000 0.2941 0.0000  plane waves:    7518
 k-point  16 :  -0.2941 0.2941 0.0000  plane waves:    7518
 k-point  17 :   0.3529 0.0000 0.0000  plane waves:    7528
 k-point  18 :   0.0000 0.3529 0.0000  plane waves:    7528
 k-point  19 :  -0.3529 0.3529 0.0000  plane waves:    7528
 k-point  20 :   0.4118 0.0000 0.0000  plane waves:    7520
 k-point  21 :   0.0000 0.4118 0.0000  plane waves:    7520
 k-point  22 :  -0.4118 0.4118 0.0000  plane waves:    7520
 k-point  23 :   0.4706-0.0000 0.0000  plane waves:    7522
 k-point  24 :  -0.0000 0.4706 0.0000  plane waves:    7522
 k-point  25 :  -0.4706 0.4706 0.0000  plane waves:    7522
 k-point  26 :   0.0588 0.0588 0.0000  plane waves:    7505
 k-point  27 :  -0.0588 0.1176 0.0000  plane waves:    7505
 k-point  28 :  -0.1176 0.0588 0.0000  plane waves:    7505
 k-point  29 :   0.1176 0.0588 0.0000  plane waves:    7499
 k-point  30 :  -0.0588 0.1765 0.0000  plane waves:    7499
 k-point  31 :  -0.1765 0.1176 0.0000  plane waves:    7499
 k-point  32 :  -0.1176 0.1765 0.0000  plane waves:    7499
 k-point  33 :   0.0588 0.1176 0.0000  plane waves:    7499
 k-point  34 :   0.1765-0.0588 0.0000  plane waves:    7499
 k-point  35 :   0.1765 0.0588 0.0000  plane waves:    7494
 k-point  36 :  -0.0588 0.2353 0.0000  plane waves:    7494
 k-point  37 :  -0.2353 0.1765 0.0000  plane waves:    7494
 k-point  38 :  -0.1765 0.2353 0.0000  plane waves:    7494
 k-point  39 :   0.0588 0.1765 0.0000  plane waves:    7494
 k-point  40 :   0.2353-0.0588 0.0000  plane waves:    7494
 k-point  41 :   0.2353 0.0588 0.0000  plane waves:    7518
 k-point  42 :  -0.0588 0.2941 0.0000  plane waves:    7518
 k-point  43 :  -0.2941 0.2353 0.0000  plane waves:    7518
 k-point  44 :  -0.2353 0.2941 0.0000  plane waves:    7518
 k-point  45 :   0.0588 0.2353 0.0000  plane waves:    7518
 k-point  46 :   0.2941-0.0588 0.0000  plane waves:    7518
 k-point  47 :   0.2941 0.0588 0.0000  plane waves:    7517
 k-point  48 :  -0.0588 0.3529 0.0000  plane waves:    7517
 k-point  49 :  -0.3529 0.2941 0.0000  plane waves:    7517
 k-point  50 :  -0.2941 0.3529 0.0000  plane waves:    7517
 k-point  51 :   0.0588 0.2941 0.0000  plane waves:    7517
 k-point  52 :   0.3529-0.0588 0.0000  plane waves:    7517
 k-point  53 :   0.3529 0.0588 0.0000  plane waves:    7517
 k-point  54 :  -0.0588 0.4118 0.0000  plane waves:    7517
 k-point  55 :  -0.4118 0.3529 0.0000  plane waves:    7517
 k-point  56 :  -0.3529 0.4118 0.0000  plane waves:    7517
 k-point  57 :   0.0588 0.3529 0.0000  plane waves:    7517
 k-point  58 :   0.4118-0.0588 0.0000  plane waves:    7517
 k-point  59 :   0.4118 0.0588 0.0000  plane waves:    7523
 k-point  60 :  -0.0588 0.4706 0.0000  plane waves:    7523
[...]
 k-point 131 :  -0.2941-0.4706 0.0000  plane waves:    7526
 k-point 132 :   0.2353 0.2941 0.0000  plane waves:    7526
 k-point 133 :  -0.4706-0.2353 0.0000  plane waves:    7526
 k-point 134 :   0.3529 0.2353 0.0000  plane waves:    7544
 k-point 135 :  -0.2353-0.4118 0.0000  plane waves:    7544
 k-point 136 :   0.4118 0.3529 0.0000  plane waves:    7544
 k-point 137 :  -0.3529-0.4118 0.0000  plane waves:    7544
 k-point 138 :   0.2353 0.3529 0.0000  plane waves:    7544
 k-point 139 :  -0.4118-0.2353 0.0000  plane waves:    7544
 k-point 140 :   0.2941 0.2941 0.0000  plane waves:    7559
 k-point 141 :  -0.2941-0.4118 0.0000  plane waves:    7559
 k-point 142 :   0.4118 0.2941 0.0000  plane waves:    7559
 k-point 143 :   0.3529 0.2941 0.0000  plane waves:    7561
 k-point 144 :  -0.2941-0.3529 0.0000  plane waves:    7561
 k-point 145 :   0.3529 0.3529 0.0000  plane waves:    7561

 maximum and minimum number of plane-waves per node :      7561     7493

 maximum number of plane-waves:      7561
 maximum index in each direction:
   IXMAX=    9   IYMAX=    9   IZMAX=   25
   IXMIN=   -9   IYMIN=   -9   IZMIN=  -25

 serial   3D FFT for wavefunctions
 parallel 3D FFT for charge:
    minimum data exchange during FFTs selected (reduces bandwidth)

 Broyden mixing: mesh for mixing (old mesh)
   NGX = 17   NGY = 17   NGZ = 51
  (NGX  = 72   NGY  = 72   NGZ  =216)
  gives a total of  14739 points

 initial charge density was supplied:
 charge density of overlapping atoms calculated
 number of electron      30.0000000 magnetization
 keeping initial charge density in first step

 Maximum index for augmentation-charges          367 (set IRDMAX)

 First call to EWALD:  gamma=   0.252
 Maximum number of real-space cells 4x 4x 2
 Maximum number of reciprocal cells 2x 2x 5

--------------------------------------- Iteration      1(   1)  ---------------------------------------

 eigenvalue-minimisations  : 13920
 total energy-change (2. order) : 0.9342410E+02  (-0.1232089E+04)
 number of electron      30.0000000 magnetization
 augmentation part       30.0000000 magnetization

 Free energy of the ion-electron system (eV)
  alpha Z        PSCENC =        14.61461864
  Ewald energy   TEWEN  =      2603.47407329
  -Hartree energ DENC   =     -3361.43886272
  -exchange      EXHF   =         0.00000000
  -V(xc)+E(xc)   XCENC  =        91.18489605
  PAW double counting   =       738.13200929     -739.83780425
  entropy T*S    EENTRO =        -0.01370208
  eigenvalues    EBANDS =      -277.89503110
  atomic energy  EATOM  =      1025.20389953
  Solvation  Ediel_sol  =         0.00000000
  free energy    TOTEN  =        93.42409665 eV

  energy without entropy =       93.43779873  energy(sigma->0) =       93.43094769

[...]

 eigenvalue-minimisations  : 17664
 total energy-change (2. order) :-0.1610278E+03  (-0.1600092E+03)
 number of electron      30.0000000 magnetization
 augmentation part       30.0000000 magnetization

[...]

 Broyden mixing:
  rms(total) = 0.13153E+01    rms(broyden)= 0.13148E+01
  rms(prec ) = 0.15017E+01
  weight for this iteration     100.00

[...]

 eigenvalues of (default mixing * dielectric matrix)
  average eigenvalue GAMMA=   1.9459
  1.9459

[...]

 eigenvalue-minimisations  : 19056
 total energy-change (2. order) : 0.4441725E-05  (-0.9063897E-04)
 number of electron      29.9999999 magnetization
 augmentation part        0.4967547 magnetization

[...]

 Broyden mixing:
  rms(total) = 0.28107E-05    rms(broyden)= 0.28103E-05
  rms(prec ) = 0.30678E-05
  weight for this iteration     100.00

 eigenvalues of (default mixing * dielectric matrix)
  average eigenvalue GAMMA=   2.7464
  9.5598  5.9237  3.9115  3.0391  2.7259  2.4222  2.1138  1.8134  1.7186  1.1668
  1.0481  0.9855  1.0103  1.0103

[...]

--------------------------------------- Iteration      1(  20)  ---------------------------------------

 eigenvalue-minimisations  : 23328
 total energy-change (2. order) :-0.8399638E-07  (-0.7733614E-10)
 number of electron      29.9999999 magnetization
 augmentation part        0.4967299 magnetization

 Free energy of the ion-electron system (eV)
  alpha Z        PSCENC =        14.61461864
  Ewald energy   TEWEN  =      2603.47407329
  -Hartree energ DENC   =     -3498.85735774
  -exchange      EXHF   =         0.00000000
  -V(xc)+E(xc)   XCENC  =        96.07901440
  PAW double counting   =      2906.41688808    -2908.94940889
  entropy T*S    EENTRO =        -0.00000006
  eigenvalues    EBANDS =      -305.21144635
  atomic energy  EATOM  =      1025.20389953
  Solvation  Ediel_sol  =         0.00000000
  free energy    TOTEN  =       -67.22971910 eV

  energy without entropy =      -67.22971904  energy(sigma->0) =      -67.22971907

 average (electrostatic) potential at core
  the test charge radii are     0.7672  0.6991
  (the norm of the test charge is              1.0000)
       1 -34.5613       2 -34.5613       3 -57.0715       4 -57.0714       5 -57.0714
       6 -57.0714       7 -57.0714       8 -57.0714

 E-fermi :  -3.4792     XC(G=0):  -2.7934     alpha+bet : -2.3721

 Fermi energy:        -3.4792225553

 k-point     1 :       0.0000    0.0000    0.0000
  band No.  band energies     occupation
      1     -19.8848      2.00000
      2     -15.9832      2.00000
      3     -15.9831      2.00000
      4     -13.6419      2.00000
      5     -13.6418      2.00000
      6     -12.5734      2.00000
      7     -11.2501      2.00000
      8      -8.6887      2.00000
      9      -8.4567      2.00000
     10      -6.3044      2.00000
     11      -6.3042      2.00000
     12      -4.4808      2.00000
     13      -4.4807      2.00000
     14      -3.7920      1.99999
     15      -3.7918      1.99999
     16      -1.9639      0.00000
     17      -0.2278      0.00000
     18      -0.2278      0.00000
     19       0.4317      0.00000
     20       0.8398      0.00000
     21       1.8430      0.00000
     22       2.2436      0.00000
     23       4.2292      0.00000
     24       4.8424      0.00000
     25       5.0089      0.00000
     26       5.0090      0.00000
     27       6.2958      0.00000
     28       6.7702      0.00000
     29       6.7704      0.00000
     30       7.8738      0.00000
     31       8.0493      0.00000
     32       8.0493      0.00000
     33       8.1313      0.00000
     34       8.2158      0.00000
     35       8.2158      0.00000
     36       8.3645      0.00000
     37       8.7408      0.00000
     38       8.7408      0.00000
     39       8.8208      0.00000
     40       8.9981      0.00000
     41       8.9981      0.00000
     42       9.1844      0.00000
     43       9.3272      0.00000
     44       9.5247      0.00000
     45       9.5249      0.00000
     46       9.6611      0.00000
     47       9.6611      0.00000
     48       9.6968      0.00000

[...]

 k-point   145 :       0.3529    0.3529    0.0000
  band No.  band energies     occupation
      1     -19.2196      2.00000
      2     -17.3557      2.00000
      3     -17.1970      2.00000
      4     -13.0075      2.00000
      5     -12.7021      2.00000
      6     -10.8641      2.00000
      7      -8.5746      2.00000
      8      -8.3141      2.00000
      9      -7.9371      2.00000
     10      -7.3908      2.00000
     11      -7.2394      2.00000
     12      -6.3543      2.00000
     13      -6.2606      2.00000
     14      -6.0612      2.00000
     15      -6.0206      2.00000
     16      -1.6093      0.00000
     17      -1.1343      0.00000
     18       3.1487      0.00000
     19       3.1650      0.00000
     20       3.5859      0.00000
     21       3.7035      0.00000
     22       3.9342      0.00000
     23       4.2515      0.00000
     24       4.2611      0.00000
     25       4.5894      0.00000
     26       4.5921      0.00000
     27       4.7181      0.00000
     28       4.9380      0.00000
     29       5.0274      0.00000
     30       6.4297      0.00000
     31       6.5885      0.00000
     32       6.9267      0.00000
     33       7.1625      0.00000
     34       7.1932      0.00000
     35       7.2544      0.00000
     36       7.6168      0.00000
     37       7.8039      0.00000
     38       7.9036      0.00000
     39       7.9982      0.00000
     40       9.2687      0.00000
     41       9.4468      0.00000
     42       9.8574      0.00000
     43      10.0894      0.00000
     44      10.2143      0.00000
     45      10.2536      0.00000
     46      10.3141      0.00000
     47      10.5662      0.00000
     48      10.7025      0.00000

 soft charge-density along one line, spin component           1
         0         1         2         3         4         5         6         7         8         9
 total charge-density along one line

------------------------ aborting loop because EDIFF is reached ----------------------------------------

         DFTD3 V3.0 Rev 1
 IVDW         = 12
 DF pbe
 parameters
 VDW_S6       =    1.0000
 VDW_S8       =    0.7875
 VDW_A1       =    0.4289
 VDW_A2       =    4.4407
 k1-k3        =   16.0000    1.3333   -4.0000
 VDW_RADIUS   =   50.2022 A
 VDW_CNRADIUS =   21.1671 A
 Edisp (eV)   -0.67804

 E6    (eV) :    -0.4579
 E8    (eV) :    -0.2201
 % E8        : 32.46

  FORCE on cell =-STRESS in cart. coord.  units (eV):
  Direction    XX          YY          ZZ          XY          YZ          ZX
  Alpha Z    14.61462    14.61462    14.61462
  Ewald    3501.19577  3501.18498 -4398.90803    -0.00122    -0.00000     0.00000
  Hartree  3440.13510  3440.13219 -3381.40988    -0.00003    -0.00000     0.00000
  E(xc)    -107.49120  -107.49123  -111.32330    -0.00000    -0.00000     0.00000
  Local   -7258.19170 -7258.17987  7443.59099     0.00095    -0.00000     0.00000
  n-local   -21.69621   -21.69647   -10.37218    -0.00001     0.00000     0.00000
  augment    -1.80631    -1.80623    -1.79655    -0.00001     0.00000     0.00000
  Kinetic   433.61291   433.61519   445.42222     0.00016    -0.00000     0.00000
  Fock        0.00000     0.00000     0.00000     0.00000     0.00000     0.00000
  vdW        -0.54285    -0.54284    -0.00593     0.00000     0.00000    -0.00000
  Total      -0.16987    -0.16965    -0.18803    -0.00017     0.00000     0.00000
  in kB      -0.78411    -0.78312    -0.86797    -0.00079     0.00000     0.00000

 VOLUME and BASIS-vectors are now :
  energy-cutoff  :      450.00
  volume of cell :      347.08
      direct lattice vectors                 reciprocal lattice vectors
     4.476485000  2.584500000  0.000000000     0.111694778  0.193461018  0.000000000
    -4.476485000  2.584500000  0.000000000    -0.111694778  0.193461018  0.000000000
     0.000000000  0.000000000 15.000000000     0.000000000  0.000000000  0.066666667

  length of vectors
     5.168999730  5.168999730 15.000000000     0.223389545  0.223389545  0.066666667

 FORCES acting on ions
    electron-ion (+dipol)            ewald-force                    non-local-force                 convergence-correction
   -.182E-02 0.205E-03 0.178E-06   0.194E-02 -.173E-03 -.103E-18   -.100E-03 -.214E-04 -.162E-26   0.436E-07 0.497E-08 0.569E-13
   0.412E-02 -.472E-03 0.211E-07   -.458E-02 0.486E-03 0.182E-18   -.377E-03 0.337E-04 0.505E-28   -.120E-07 0.122E-07 0.568E-13
   0.256E+02 -.443E+02 -.228E-06   -.276E+02 0.478E+02 -.120E-18   0.201E+01 -.348E+01 0.485E-26   0.224E-05 -.385E-05 0.768E-13
   -.256E+02 -.443E+02 -.399E-06   0.276E+02 0.478E+02 0.758E-18   -.201E+01 -.348E+01 0.000E+00   -.231E-05 -.387E-05 0.791E-13
   -.511E+02 0.436E-03 0.424E-07   0.551E+02 -.522E-03 -.197E-18   -.402E+01 0.613E-04 0.162E-26   -.449E-05 -.719E-08 0.817E-13
   0.511E+02 -.278E-03 -.163E-06   -.551E+02 0.308E-03 0.100E-18   0.402E+01 0.411E-03 -.242E-26   0.454E-05 -.188E-07 0.809E-13
   0.256E+02 0.443E+02 0.258E-06   -.276E+02 -.478E+02 -.329E-18   0.201E+01 0.348E+01 0.808E-26   0.227E-05 0.386E-05 0.843E-13
   -.256E+02 0.443E+02 0.507E-09   0.276E+02 -.478E+02 -.272E-18   -.201E+01 0.348E+01 -.323E-26   -.233E-05 0.386E-05 0.813E-13
   0.656E-04 -.601E-04 -.289E-06   -.711E-14 0.000E+00 0.195E-19   0.255E-03 0.590E-03 0.732E-26   -.474E-07 -.135E-07 0.598E-12

 POSITION                                       TOTAL-FORCE (eV/Angst)
     -1.48096      2.60388      3.75000        -0.000026     -0.000055      0.000000
      1.50336      2.60388      3.75000        -0.000878     -0.000018      0.000000
     -0.69947      1.25024      3.75000         0.000415      0.000464     -0.000000
      0.72183      1.25025      3.75000         0.000046      0.000155     -0.000000
     -3.04399      2.60389      3.75000        -0.000487     -0.000091      0.000000
      3.06636      2.60387      3.75000         0.000479      0.000374     -0.000000
     -0.69945      3.95752      3.75000         0.000107     -0.000478     -0.000000
      0.72184      3.95752      3.75000         0.000343     -0.000351      0.000000
    total drift:                                0.000320      0.000530     -0.000000

  FREE ENERGIE OF THE ION-ELECTRON SYSTEM (eV)
  free  energy   TOTEN  =       -67.90775617 eV

  energy  without entropy=      -67.90775611  energy(sigma->0) =      -67.90775614

 stress matrix after NEB project (eV)
     -0.16987     -0.00017      0.00000
     -0.00017     -0.16965      0.00000
      0.00000      0.00000     -0.18803
  FORCES: max atom, RMS     0.000878    0.000534
  FORCE total and by dimension    0.001511    0.000878
  Stress total and by dimension    0.304944    0.188031
 writing wavefunctions