 vasp.6.3.2 27Jun22 (build May 31 2023 12:07:17) complex

 executed on             LinuxIFC date 2024.08.10  07:42:49

 INCAR:
   SYSTEM = Dielectric_function
   ISTART = 1
   ICHARG = 2
   PREC = Normal
   ENCUT = 450
   ALGO = Damped
   EDIFF = 1E-4
   NEDOS = 4000
   ISMEAR = 0
   SIGMA = 0.01
   GGA = PE
   LHFCALC = .TRUE.
   AEXX = 0.25
   HFSCREEN = 0.2
   LOPTICS = .TRUE.
   CSHIFT = 0.1
   NBANDS = 128
   LREAL = .FALSE.

 POTCAR:    PAW_PBE B 06Sep2000
 POTCAR:    PAW_PBE C 08Apr2002
|           W    W    AA    RRRRR   N    N  II  N    N   GGGG   !!!           |
|           W    W   A  A   R    R  NN   N  II  NN   N  G    G  !!!           |
|           W    W  A    A  R    R  N N  N  II  N N  N  G       !!!           |
|           W WW W  AAAAAA  RRRRR   N  N N  II  N  N N  G  GGG   !            |
|           WW  WW  A    A  R   R   N   NN  II  N   NN  G    G                |
|           W    W  A    A  R    R  N    N  II  N    N   GGGG   !!!           |
|     For optimal performance we recommend to set                             |
|       NCORE = 2 up to number-of-cores-per-socket                            |
|     This setting can greatly improve the performance of VASP for DFT.       |
|     The default, NCORE=1 might be grossly inefficient on modern             |
|     multi-core architectures or massively parallel machines. Do your        |
|     Unfortunately you need to use the default for GW and RPA                |
|     calculations (for HF NCORE is supported but not extensively tested      |
|     yet).                                                                   |

   TITEL  = PAW_PBE B 06Sep2000
   POMASS =   10.811; ZVAL   =    3.000    mass and valenz
   ENMAX  =  318.614; ENMIN  =  238.960 eV

   TITEL  = PAW_PBE C 08Apr2002
   POMASS =   12.011; ZVAL   =    4.000    mass and valenz
   ENMAX  =  400.000; ENMIN  =  300.000 eV

  PAW_PBE B 06Sep2000                   :
  PAW_PBE C 08Apr2002                   :

 POSCAR: Graphene-Borophene Top with lattice para
  positions in direct lattice
  velocities in cartesian coordinates
 exchange correlation table for  LEXCH =        8
   RHO(1)=    0.500       N(1)  =     2000
   RHO(2)=  100.500       N(2)  =     4000

 ion  position               nearest neighbor table
   1  0.669  0.000  0.101-   3 1.65   6 1.65   7 1.68   8 1.68   2 1.68
   2  0.332  0.000  0.101-   5 1.65   4 1.65   7 1.68   8 1.68   1 1.68
   3  1.000  0.331  0.101-   1 1.65   5 1.65   7 1.68   8 1.68   4 1.68
   4  1.000  0.668  0.101-   6 1.65   2 1.65   7 1.68   8 1.68   3 1.68
   5  0.332  0.331  0.101-   2 1.65   3 1.65   7 1.68   8 1.68   6 1.68
   6  0.669  0.668  0.101-   4 1.65   1 1.65   7 1.68   8 1.68   5 1.68
   7  0.667  0.333  0.088-   5 1.68   6 1.68   2 1.68   1 1.68   4 1.68   3 1.68
   8  0.333  0.667  0.114-   5 1.68   6 1.68   3 1.68   4 1.68   1 1.68   2 1.68
   9  0.167  0.333  0.335-  14 1.44  10 1.44  12 1.44
  10  0.333  0.167  0.334-  11 1.44   9 1.44  13 1.44
  11  0.167  0.833  0.335-  10 1.44  16 1.44  12 1.44
  12  0.333  0.667  0.335-   9 1.44  15 1.44  11 1.44
  13  0.667  0.333  0.334-  10 1.44  16 1.44  14 1.44
  14  0.833  0.167  0.334-   9 1.44  15 1.44  13 1.44
  15  0.667  0.833  0.335-  14 1.44  16 1.44  12 1.44
  16  0.833  0.667  0.334-  11 1.44  15 1.44  13 1.44

  LATTYP: Found a hexagonal cell.
 ALAT       =     4.9790000000
 C/A-ratio  =     3.0126531432

  Lattice vectors:

 A1 = (   4.3119404854,   2.4895000000,   0.0000000000)
 A2 = (  -4.3119404854,   2.4895000000,   0.0000000000)
 A3 = (   0.0000000000,   0.0000000000,  15.0000000000)

Analysis of symmetry for initial positions (statically):
 Subroutine PRICEL returns:
 Original cell was already a primitive cell.

 Routine SETGRP: Setting up the symmetry group for a
 hexagonal supercell.

 Subroutine GETGRP returns: Found  6 space group operations
 (whereof  6 operations were pure point group operations)
 out of a pool of 24 trial point group operations.

The static configuration has the point symmetry C_3v.

Analysis of symmetry for dynamics (positions and initial velocities):
 Subroutine PRICEL returns:
 Original cell was already a primitive cell.

 Routine SETGRP: Setting up the symmetry group for a
 hexagonal supercell.

 Subroutine GETGRP returns: Found  6 space group operations
 (whereof  6 operations were pure point group operations)
 out of a pool of 24 trial point group operations.

The dynamic configuration has the point symmetry C_3v.

 Subroutine INISYM returns: Found  6 space group operations
 (whereof  6 operations are pure point group operations),
 and found     1 'primitive' translations

                                     Primitive cell

  volume of cell :     322.0373

  direct lattice vectors                    reciprocal lattice vectors
     4.311940485  2.489500000  0.000000000     0.115957074  0.200843543  0.000000000
    -4.311940485  2.489500000  0.000000000    -0.115957074  0.200843543  0.000000000
     0.000000000  0.000000000 15.000000000     0.000000000  0.000000000  0.066666667

  length of vectors
     4.979000000  4.979000000 15.000000000     0.231914147  0.231914147  0.066666667

  position of ions in fractional coordinates (direct lattice)
     0.668529486  0.000031744  0.101490874
     0.331501257  0.000031744  0.101490874
     0.999968256  0.331469514  0.101490874
     0.999968256  0.668497743  0.101490874
     0.331501257  0.331469514  0.101490874
     0.668529486  0.668497743  0.101490874
     0.666666000  0.333333000  0.088455217
     0.333333000  0.666666000  0.114424057
     0.166653576  0.333308152  0.334568638
     0.333330518  0.166664759  0.334466239
     0.166653576  0.833345424  0.334568638
     0.333333000  0.666666000  0.334626021
     0.666666000  0.333333000  0.334444829
     0.833334241  0.166664759  0.334466239
     0.666690848  0.833345424  0.334568638
     0.833334241  0.666668482  0.334466239

  ion indices of the primitive-cell ions
   primitive index   ion index
                 1           1
                 2           2
                 3           3
                 4           4
                 5           5
                 6           6
                 7           7
                 8           8
                 9           9
                10          10
                11          11
                12          12
                13          13
                14          14
                15          15
                16          16

 KPOINTS: k-points

Automatic generation of k-mesh.
 Grid dimensions read from file:
 generate k-points for:   17   17    1

 Generating k-lattice:

  Cartesian coordinates                     Fractional coordinates (reciprocal lattice)
     0.006821004  0.011814326  0.000000000     0.058823529 -0.000000000  0.000000000
    -0.006821004  0.011814326  0.000000000    -0.000000000  0.058823529  0.000000000
     0.000000000  0.000000000  0.066666667     0.000000000  0.000000000  1.000000000

  Length of vectors
     0.013642009  0.013642009  0.066666667

  Shift w.r.t. Gamma in fractional coordinates (k-lattice)
     0.000000000  0.000000000  0.000000000

 Subroutine IBZKPT returns following result:

 Found     33 irreducible k-points:

 Following reciprocal coordinates:
            Coordinates               Weight
  0.000000  0.000000  0.000000      1.000000
  0.058824  0.000000  0.000000      6.000000
  0.117647 -0.000000  0.000000      6.000000
  0.176471 -0.000000  0.000000      6.000000
  0.235294 -0.000000  0.000000      6.000000
  0.294118  0.000000  0.000000      6.000000
  0.352941  0.000000  0.000000      6.000000
  0.411765 -0.000000  0.000000      6.000000
  0.470588 -0.000000  0.000000      6.000000
  0.058824  0.058824  0.000000      6.000000
  0.117647  0.058824  0.000000     12.000000
  0.176471  0.058824  0.000000     12.000000
  0.235294  0.058824  0.000000     12.000000
  0.294118  0.058824  0.000000     12.000000
  0.352941  0.058824  0.000000     12.000000
  0.411765  0.058824  0.000000     12.000000
  0.470588  0.058824  0.000000      6.000000
  0.117647  0.117647  0.000000      6.000000
  0.176471  0.117647  0.000000     12.000000
  0.235294  0.117647  0.000000     12.000000
  0.294118  0.117647  0.000000     12.000000
  0.352941  0.117647  0.000000     12.000000
  0.411765  0.117647  0.000000     12.000000
  0.176471  0.176471  0.000000      6.000000
  0.235294  0.176471  0.000000     12.000000
  0.294118  0.176471  0.000000     12.000000
  0.352941  0.176471  0.000000     12.000000
  0.411765  0.176471  0.000000      6.000000
  0.235294  0.235294  0.000000      6.000000
  0.294118  0.235294  0.000000     12.000000
  0.352941  0.235294  0.000000     12.000000
  0.294118  0.294118  0.000000      6.000000
  0.352941  0.294118  0.000000      6.000000

 Following cartesian coordinates:
            Coordinates               Weight
  0.000000  0.000000  0.000000      1.000000
  0.006821  0.011814  0.000000      6.000000
  0.013642  0.023629  0.000000      6.000000
  0.020463  0.035443  0.000000      6.000000
  0.027284  0.047257  0.000000      6.000000
  0.034105  0.059072  0.000000      6.000000
  0.040926  0.070886  0.000000      6.000000
  0.047747  0.082700  0.000000      6.000000
  0.054568  0.094515  0.000000      6.000000
  0.000000  0.023629  0.000000      6.000000
  0.006821  0.035443  0.000000     12.000000
  0.013642  0.047257  0.000000     12.000000
  0.020463  0.059072  0.000000     12.000000
  0.027284  0.070886  0.000000     12.000000
  0.034105  0.082700  0.000000     12.000000
  0.040926  0.094515  0.000000     12.000000
  0.047747  0.106329  0.000000      6.000000
  0.000000  0.047257  0.000000      6.000000
  0.006821  0.059072  0.000000     12.000000
  0.013642  0.070886  0.000000     12.000000
  0.020463  0.082700  0.000000     12.000000
  0.027284  0.094515  0.000000     12.000000
  0.034105  0.106329  0.000000     12.000000
  0.000000  0.070886  0.000000      6.000000
  0.006821  0.082700  0.000000     12.000000
  0.013642  0.094515  0.000000     12.000000
  0.020463  0.106329  0.000000     12.000000
  0.027284  0.118143  0.000000      6.000000
  0.000000  0.094515  0.000000      6.000000
  0.006821  0.106329  0.000000     12.000000
  0.013642  0.118143  0.000000     12.000000
  0.000000  0.118143  0.000000      6.000000
  0.006821  0.129958  0.000000      6.000000

 Subroutine IBZKPT_HF returns following result:

 Found    289 k-points in 1st BZ
 the following    289 k-points will be used (e.g. in the exchange kernel)
 Following reciprocal coordinates:   # in IRBZ
  0.000000  0.000000  0.000000    0.00346021   1 t-inv F
  0.058824  0.000000  0.000000    0.00346021   2 t-inv F
  0.117647 -0.000000  0.000000    0.00346021   3 t-inv F
  0.176471 -0.000000  0.000000    0.00346021   4 t-inv F
  0.235294 -0.000000  0.000000    0.00346021   5 t-inv F
  0.294118  0.000000  0.000000    0.00346021   6 t-inv F
  0.352941  0.000000  0.000000    0.00346021   7 t-inv F
  0.411765 -0.000000  0.000000    0.00346021   8 t-inv F
  0.470588 -0.000000  0.000000    0.00346021   9 t-inv F
  0.058824  0.058824  0.000000    0.00346021  10 t-inv F
  0.117647  0.058824  0.000000    0.00346021  11 t-inv F
[...]
 proj1                                 219.258867      332101
 fock_all_dblbuf                       185.212803          99
 crexp_mul_wave                        143.238897     5313616
 depsum_two_bands_rholm_trace          111.998403    ********
 fock_set_fsg                          101.771638          16
 bg_ppotrf_trtri                        76.627303        4059
 w1_copy                                66.129981      352484
 fftwav                                 56.453325      321915
 gemm                                   54.677073      491568
 depsum_two_bands_rholm_trace_m         46.919950     1897863
 phase                                  37.373857       12302
 eddav                                  35.480066          96
 orth1                                  32.799814       42064
 waitred                                25.638690        6534
 waitgth                                25.557703        6534
 apply_gfac_weight                      19.667782      267036
 spher                                  17.669045         222
 work_mul_crexp                         16.486417      491568
 vhamil                                 13.639891       15114
 ggemm                                  12.949251       15015
 wfinit                                 12.513007          12
 fock_ace_acc_apply                      9.529089       15015
 spher_der                               8.383337          78
 lrf_rphi0                               7.874219          39
 eddiag_lr                               7.818132          39
 orth1_nosubindex                        7.526217        4059
 fock_charge_mu                          7.442069     1897863
 pdssyex_zheevx                          7.162682          99
 racc0mu_hf                              4.483044     1897863
 pw_charge_trace_mu                      4.166245     1897863
 dllmm_trans_eccp_nl_fock                4.000956       28611
 eccp_nl_fock                            3.872986    12817728
 m_bcast_d                               3.670322       30037
 fock_force                              2.645213           1
 redis_pw                                2.153552      112145
 wrk_allocate                            1.750760           1
 depsum_two_bands_rholm_trace_m          1.738193     1897863
 apply_precond                           1.568049       11935
 distri_slice                            1.461499        4059
 edwav                                   1.185630           2
 fock_bck                                1.185488        6534
 fft_and_gather                          1.151211        6567
 lincom_slice                            1.105503        4059
 w1_daxpy                                1.032351       15015
 hamiltmu                                0.905913       15015
 redis_proj                              0.894713       88572
 dfftw_execute                           0.837229         216
 eccp                                    0.680508        3278
 hamiltmu_commutator                     0.671672        2475
 w1_dot                                  0.654304        3080
 vnlac0                                  0.648966       30723
 elmin_all                               0.609503           1
 fftext_mpi                              0.510954       23331
 reduce                                  0.447415        6534
 kinhamil                                0.416435       15114
 fftbas_plan_mpi                         0.399493          72
 lrf_commutator                          0.398038          39
 force_and_stress                        0.342257           1
 recon_slice                             0.309632        4059
 fftwav_mpi                              0.280649      321915
 fornl                                   0.266763           1
 orth1_distri                            0.208673        4059
 overl1                                  0.208518       28182
 orthch                                  0.204048          15
 m_alltoallv_z                           0.177530          79
 eddiag                                  0.159386           1
 soft_charge_sym                         0.148710           3
 projxyz                                 0.143595          33
 potlok                                  0.138169           4
 pw_charge                               0.105325         867
 overl                                   0.090959       30547
 inisym                                  0.088030           1
 lincom                                  0.077206         165
 densta                                  0.064848           7
 lincom_distri                           0.046929        4059
 ggaall_grid                             0.044875           5
 setup_precond                           0.044825        3080
 crpa_reader                             0.044498           1
 newband                                 0.038213       18095
 fock_ace_construct                      0.037112          96
 setdij_                                 0.033926          12
 w1_projall                              0.033239       11935
 choleski                                0.029761        4059
 contraction                             0.017195       28611
 brgrid                                  0.014440           1
 set_dd_paw                              0.014352           5
 proj                                    0.013452         825
 augmentation_charge                     0.010234           3
 forloc                                  0.008019           1
 m_sum_g                                 0.007299        8118
 w1_dscal                                0.006870          66
 overl1_c                                0.006608        2475
 rspher_all                              0.004815           4
 truncate_high_frequency_w1              0.004681       18095
 depsum_sym                              0.004646           3
 proall                                  0.002235          13
 map_gather                              0.001314          79
 map_scatter                             0.001098          79
 set_dd_magatom                          0.001092           2
 posmap                                  0.001019           2
 fewald                                  0.001002           1
 forhar                                  0.000857           1
 pothar                                  0.000664           4
 fft_gq                                  0.000648           3
 rsp                                     0.000621           1
 set_charge                              0.000608           3
 vectorpot                               0.000365           1
 hamilt_local                            0.000174          99
 stufak                                  0.000172           1
 map_forward                             0.000133          72
 map_backward                            0.000090          72
 redis_pw_all                            0.000063           2
 wrk_deallocate                          0.000037           1
 fftbrc_mpi                              0.000034          72
 rcp                                     0.000034           1
 fordep                                  0.000014           1
 shift_bands_between_low_high            0.000010          33
 FERMAT_RAZOR                            0.000009           1
 potlok_metagga                          0.000002           3
 redis_pw_over_bands                     0.000002           3
 rotate_active_occupied_orbital          0.000002           1
  summed up times    621611.581824064

 Accumulative profile

 total_time                         621611.581824           1
 fft3d_mpi                          347310.040701    ********
 fft3d                              347237.773944    ********
 fock_all_dblbuf                    267437.915345          99
 fock_fwd                           247207.717927        6534
 vhamil_trace                        47653.806859    ********
 fock_charge_mu                      46138.572357     1897863
 pw_charge_trace_mu                  34227.660594     1897863
 pw_charge_trace_mu_                 34223.494349     1897863
 reduce                              18711.110126        6534
 m_ireduce_z_to                      18710.662711      836352
 pw_charge_trace                     18259.008495    91555200
 m_sumb_d                            17997.704739       88677
 apply_gfac_exchange                 16750.383359    ********
 apply_gfac                          14129.738855    ********
 rpro1_hf                            13839.387426    ********
 racc0_hf                            13776.949191    ********
 lr_optic                            13427.962404           1
 apply_gfac_qder                     12971.871486    91555200
 rpromu_hf                           10231.693335     1926474
 fock_set_gfac_vkpt                  10200.854904     4043688
 racc0mu_hf                          10026.008443     1897863
 racc0mu_hf_                         10021.525399     1897863
 elmin_all                            8158.426425           1
 edwav                                5451.055705           2
 depsum_two_bands_rholm_trace         4539.794410    ********
 depsum_two_bands_rholm_trace_        4427.796007    ********
 calc_dllmm_trans                     3980.623058    ********
 eddav                                3702.918038          96
 eddiag                               2705.374022           1
 lapack                               2059.092029       15015
 depsum_two_bands_rholm_trace_m       1877.461251     1897863
 depsum_two_bands_rholm_trace_m       1875.723058     1897863
 phaser_hf                            1659.699647     4043688
 fft_and_gather                       1253.392581        6567
 m_ibcast_z_from                      1220.773291      840972
 overl_fock                            648.147836    ********
 m_alltoall_d                          625.295195      200717
 force_and_stress                      598.146797           1
 fock_force                            596.851723           1
 redis_pw                              535.331858      112145
 proj1                                 362.497764      332101
 fftwav_mpi                            321.824944      321915
 fftwav                                321.544295      321915
 m_bcast_z                             291.749415       69928
 fock_ace_acc_apply                    242.353795       15015
 fftext_mpi                            166.175007       23331
 lrf_rphi0                             152.991450          39
 fock_ace_construct                    146.600716          96
 crexp_mul_wave                        143.238897     5313616
 eddiag_lr                             103.135256          39
 fock_set_fsg                          101.771638          16
 redis_proj                             93.011603       88572
 choleski                               76.657064        4059
 bg_ppotrf_trtri                        76.627303        4059
 vnlac0                                 71.812456       30723
 w1_copy                                66.129981      352484
 gemm                                   54.677073      491568
 hamiltmu                               52.864706       15015
 fock_bck                               49.803579        6534
 phase                                  37.373857       12302
 m_sum_g                                33.453420        8118
 orth1                                  32.799814       42064
 lrf_commutator                         31.977239          39
 wfinit                                 30.438109          12
 orthch                                 29.068615          15
 dllmm_trans_eccp_nl_fock               27.773547       28611
 orth1_distri                           26.196203        4059
 newband                                25.990150       18095
 waitred                                25.638690        6534
 waitgth                                25.557703        6534
 w1_projall                             23.310369       11935
 spher_der                              20.992794          78
 apply_gfac_weight                      19.667782      267036
 lincom_distri                          17.915671        4059
 spher                                  17.669045         222
 work_mul_crexp                         16.486417      491568
 vhamil                                 13.639891       15114
 hamiltmu_commutator                    13.511127        2475
 kinhamil                               13.210585       15114
 ggemm                                  12.949251       15015
 wrk_allocate                            8.099388           1
 orth1_nosubindex                        7.526217        4059
 pdssyex_zheevx                          7.162682          99
 eccp_nl_fock                            3.872986    12817728
 proall                                  3.683359          13
 m_bcast_d                               3.670322       30037
 densta                                  2.398042           7
 set_charge                              1.568527           3
 apply_precond                           1.568049       11935
 distri_slice                            1.461499        4059
 soft_charge_sym                         1.446595           3
 fftbrc_mpi                              1.416920          72
 fftbas_plan_mpi                         1.416886          72
 lincom_slice                            1.105503        4059
 w1_daxpy                                1.032351       15015
 proj                                    0.979039         825
 dfftw_execute                           0.837229         216
 eccp                                    0.680508        3278
 w1_dot                                  0.654304        3080
 fornl                                   0.572910           1
 potlok                                  0.533207           4
 fft_gq                                  0.465159           3
 recon_slice                             0.309632        4059
 redis_pw_over_bands                     0.296553           3
 redis_pw_all                            0.296551           2
 set_dd_paw                              0.235364           5
 overl1                                  0.208518       28182
 m_alltoallv_z                           0.177530          79
 projxyz                                 0.143601          33
 hamilt_local                            0.126441          99
 augmentation_charge                     0.105889           3
 pw_charge                               0.105325         867
 map_backward                            0.100625          72
 overl                                   0.090959       30547
 inisym                                  0.089049           1
 map_forward                             0.079539          72
 lincom                                  0.077206         165
 setdij_                                 0.048498          12
 ggaall_grid                             0.044875           5
 setup_precond                           0.044825        3080
 crpa_reader                             0.044498           1
 contraction                             0.017195       28611
 depsum_sym                              0.015434           3
 brgrid                                  0.014440           1
 fordep                                  0.013100           1
 forloc                                  0.010533           1
 w1_dscal                                0.006870          66
 overl1_c                                0.006608        2475
 rspher_all                              0.004815           4
 truncate_high_frequency_w1              0.004681       18095
 pothar                                  0.004395           4
 fewald                                  0.002059           1
 forhar                                  0.001398           1
 map_gather                              0.001314          79
 map_scatter                             0.001098          79
 set_dd_magatom                          0.001092           2
 posmap                                  0.001019           2
 rsp                                     0.000621           1
 vectorpot                               0.000365           1
 stufak                                  0.000172           1
 wrk_deallocate                          0.000037           1
 rcp                                     0.000034           1
 shift_bands_between_low_high            0.000010          33
 FERMAT_RAZOR                            0.000009           1
 potlok_metagga                          0.000002           3
 rotate_active_occupied_orbital          0.000002           1

Profiling took **********329.880431  0.040390  0.040320 seconds
Profiling took 776.440913 seconds