 vasp.6.3.2 27Jun22 (build May 31 2023 12:07:17) complex

 executed on             LinuxIFC date 2024.04.02  14:58:50

 INCAR:
   SYSTEM = Dielectric
   ISTART = 1
   ICHARG = 2
   PREC = Accurate
   ENCUT = 450
   ALGO = Damped
   EDIFF = 1E-8
   NEDOS = 4000
   ISMEAR = 0
   SIGMA = 0.01
   GGA = PE
   LHFCALC = .TRUE.
   AEXX = 0.25
   HFSCREEN = 0.2
   LOPTICS = .TRUE.
   CSHIFT = 0.1
   NBANDS = 128
   LREAL = .FALSE.

 POTCAR:    PAW_PBE B 06Sep2000
 POTCAR:    PAW_PBE C 08Apr2002
|           W    W    AA    RRRRR   N    N  II  N    N   GGGG   !!!           |
|           W    W   A  A   R    R  NN   N  II  NN   N  G    G  !!!           |
|           W    W  A    A  R    R  N N  N  II  N N  N  G       !!!           |
|           W WW W  AAAAAA  RRRRR   N  N N  II  N  N N  G  GGG   !            |
|           WW  WW  A    A  R   R   N   NN  II  N   NN  G    G                |
|           W    W  A    A  R    R  N    N  II  N    N   GGGG   !!!           |
|     For optimal performance we recommend to set                             |
|       NCORE = 2 up to number-of-cores-per-socket                            |
|     This setting can greatly improve the performance of VASP for DFT.       |
|     The default, NCORE=1 might be grossly inefficient on modern             |
|     multi-core architectures or massively parallel machines. Do your        |
|     Unfortunately you need to use the default for GW and RPA                |
|     calculations (for HF NCORE is supported but not extensively tested      |
|     yet).                                                                   |

   TITEL  = PAW_PBE B 06Sep2000
   POMASS =   10.811; ZVAL   =    3.000    mass and valenz
   ENMAX  =  318.614; ENMIN  =  238.960 eV

   TITEL  = PAW_PBE C 08Apr2002
   POMASS =   12.011; ZVAL   =    4.000    mass and valenz
   ENMAX  =  400.000; ENMIN  =  300.000 eV

  PAW_PBE B 06Sep2000                   :
  PAW_PBE C 08Apr2002                   :

 POSCAR: Graphene-B4C3 Top with lattice parameter
  positions in direct lattice
  velocities in cartesian coordinates
 exchange correlation table for  LEXCH =        8
   RHO(1)=    0.500       N(1)  =     2000
   RHO(2)=  100.500       N(2)  =     4000

 ion  position               nearest neighbor table
   1  0.004  0.003  0.102-   5 1.57   6 1.57   7 1.57   3 1.72   2 1.72   4 1.72
   2  0.359  0.003  0.101-   6 1.56   5 1.65   7 1.65   1 1.72
   3  0.004  0.358  0.101-   7 1.56   6 1.65   5 1.65   1 1.72
   4  0.649  0.648  0.101-   5 1.56   7 1.65   6 1.65   1 1.72
   5  0.328  0.326  0.101-   4 1.56   1 1.57   2 1.65   3 1.65
   6  0.681  0.003  0.101-   2 1.56   1 1.57   3 1.65   4 1.65
   7  0.004  0.679  0.101-   3 1.56   1 1.57   4 1.65   2 1.65
   8  0.000  0.500  0.335-   9 1.40  11 1.40  13 1.40
   9  0.167  0.333  0.335-   8 1.40  12 1.40  10 1.40
  10  0.000  0.000  0.335-  11 1.40   9 1.40  15 1.40
  11  0.167  0.833  0.335-  14 1.40   8 1.40  10 1.40
  12  0.500  0.500  0.335-  15 1.40   9 1.40  13 1.40
  13  0.667  0.333  0.335-  12 1.40   8 1.40  14 1.40
  14  0.500  0.000  0.335-  11 1.40  15 1.40  13 1.40
  15  0.667  0.833  0.335-  12 1.40  14 1.40  10 1.40

  LATTYP: Found a hexagonal cell.
 ALAT       =     4.8460000000
 C/A-ratio  =     3.0953363599

  Lattice vectors:

 A1 = (   4.1967591067,   2.4230000000,   0.0000000000)
 A2 = (  -4.1967591067,   2.4230000000,   0.0000000000)
 A3 = (   0.0000000000,   0.0000000000,  15.0000000000)

Analysis of symmetry for initial positions (statically):
 Subroutine PRICEL returns:
 Original cell was already a primitive cell.

 Routine SETGRP: Setting up the symmetry group for a
 hexagonal supercell.

 Subroutine GETGRP returns: Found  1 space group operations
 (whereof  1 operations were pure point group operations)
 out of a pool of 24 trial point group operations.

The static configuration has the point symmetry C_1 .

Analysis of symmetry for dynamics (positions and initial velocities):
 Subroutine PRICEL returns:
 Original cell was already a primitive cell.

 Routine SETGRP: Setting up the symmetry group for a
 hexagonal supercell.

 Subroutine GETGRP returns: Found  1 space group operations
 (whereof  1 operations were pure point group operations)
 out of a pool of 24 trial point group operations.

The dynamic configuration has the point symmetry C_1 .

 Subroutine INISYM returns: Found  1 space group operations
 (whereof  1 operations are pure point group operations),
 and found     1 'primitive' translations

                                     Primitive cell

  volume of cell :     305.0624

  direct lattice vectors                    reciprocal lattice vectors
     4.196759107  2.423000000  0.000000000     0.119139552  0.206355757  0.000000000
    -4.196759107  2.423000000  0.000000000    -0.119139552  0.206355757  0.000000000
     0.000000000  0.000000000 15.000000000     0.000000000  0.000000000  0.066666667

  length of vectors
     4.846000000  4.846000000 15.000000000     0.238279104  0.238279104  0.066666667

  position of ions in fractional coordinates (direct lattice)
     0.004056526  0.002697343  0.101501060
     0.359245494  0.002978704  0.100711409
     0.003767832  0.357599513  0.100712169
     0.649148177  0.647506274  0.100708602
     0.327784757  0.326144145  0.100730862
     0.680601878  0.002974890  0.100730542
     0.003770558  0.678959212  0.100727858
     0.000132595  0.500063036  0.335115331
     0.166783864  0.333452843  0.335150012
     0.000115386  0.000071038  0.335075930
     0.166825953  0.833402697  0.335153906
     0.500125878  0.500099855  0.335118110
     0.666781160  0.333405941  0.335013099
     0.500087443  0.000053650  0.335113676
     0.666733165  0.833358192  0.335150101

  ion indices of the primitive-cell ions
   primitive index   ion index
                 1           1
                 2           2
                 3           3
                 4           4
                 5           5
                 6           6
                 7           7
                 8           8
                 9           9
                10          10
                11          11
                12          12
                13          13
                14          14
                15          15

 KPOINTS: k-points

Automatic generation of k-mesh.
 Grid dimensions read from file:
 generate k-points for:    3    3    1

 Generating k-lattice:

  Cartesian coordinates                     Fractional coordinates (reciprocal lattice)
     0.039713184  0.068785252  0.000000000     0.333333333 -0.000000000  0.000000000
    -0.039713184  0.068785252  0.000000000    -0.000000000  0.333333333  0.000000000
     0.000000000  0.000000000  0.066666667     0.000000000  0.000000000  1.000000000

  Length of vectors
     0.079426368  0.079426368  0.066666667

  Shift w.r.t. Gamma in fractional coordinates (k-lattice)
     0.000000000  0.000000000  0.000000000

 Subroutine IBZKPT returns following result:

 Found      5 irreducible k-points:

 Following reciprocal coordinates:
            Coordinates               Weight
  0.000000  0.000000  0.000000      1.000000
  0.333333  0.000000  0.000000      2.000000
  0.000000  0.333333  0.000000      2.000000
 -0.333333  0.333333  0.000000      2.000000
  0.333333  0.333333  0.000000      2.000000

 Following cartesian coordinates:
            Coordinates               Weight
  0.000000  0.000000  0.000000      1.000000
  0.039713  0.068785  0.000000      2.000000
 -0.039713  0.068785  0.000000      2.000000
 -0.079426  0.000000  0.000000      2.000000
  0.000000  0.137571  0.000000      2.000000

 Subroutine IBZKPT_HF returns following result:

 Found      9 k-points in 1st BZ
 the following      9 k-points will be used (e.g. in the exchange kernel)
 Following reciprocal coordinates:   # in IRBZ
  0.000000  0.000000  0.000000    0.11111111   1 t-inv F
  0.333333  0.000000  0.000000    0.11111111   2 t-inv F
  0.000000  0.333333  0.000000    0.11111111   3 t-inv F
 -0.333333  0.333333  0.000000    0.11111111   4 t-inv F
  0.333333  0.333333  0.000000    0.11111111   5 t-inv F
 -0.333333 -0.000000  0.000000    0.11111111   2 t-inv T
 -0.000000 -0.333333  0.000000    0.11111111   3 t-inv T
  0.333333 -0.333333  0.000000    0.11111111   4 t-inv T
 -0.333333 -0.333333  0.000000    0.11111111   5 t-inv T
|           W    W    AA    RRRRR   N    N  II  N    N   GGGG   !!!           |
|           W    W   A  A   R    R  NN   N  II  NN   N  G    G  !!!           |
|           W    W  A    A  R    R  N N  N  II  N N  N  G       !!!           |
|           W WW W  AAAAAA  RRRRR   N  N N  II  N  N N  G  GGG   !            |
|           WW  WW  A    A  R   R   N   NN  II  N   NN  G    G                |
|           W    W  A    A  R    R  N    N  II  N    N   GGGG   !!!           |
|     The number of bands has been changed from the values supplied in        |
|     the INCAR file. This is a result of running the parallel version.       |
|     The orbitals not found in the WAVECAR file will be initialized with     |
|     random numbers, which is usually adequate. For correlated               |
|     calculations, however, you should redo the groundstate calculation.     |
|     I found NBANDS = 128. Now, NBANDS = 144.                                |

 SYSTEM =  Dielectric
 POSCAR =  Graphene-B4C3 Top with lattice parameter

 Startparameter for this run:
   NWRITE =      2    write-flag & timer
   PREC   = accura    normal or accurate (medium, high low for compatibility)
   ISTART =      1    job   : 0-new  1-cont  2-samecut
   ICHARG =      2    charge: 1-file 2-atom 10-const
   ISPIN  =      1    spin polarized calculation?
   LNONCOLLINEAR =      F non collinear calculations
   LSORBIT =      F    spin-orbit coupling
   INIWAV =      1    electr: 0-lowe 1-rand  2-diag
   LASPH  =      F    aspherical Exc in radial PAW
 Electronic Relaxation 1
   ENCUT  =  450.0 eV  33.07 Ry    5.75 a.u.   8.38  8.38 25.95*2*pi/ulx,y,z
   ENINI  =  450.0     initial cutoff
   ENAUG  =  644.9 eV  augmentation charge cutoff
   NELM   =     60;   NELMIN=  2; NELMDL=  0     # of ELM steps
   EDIFF  = 0.1E-07   stopping-criterion for ELM
   LREAL  =      F    real-space projection
   NLSPLINE    = F    spline interpolate recip. space projectors
   LCOMPAT=      F    compatible to vasp.4.4
   GGA_COMPAT  = T    GGA compatible to vasp.4.4-vasp.4.6
   LMAXPAW     = -100 max onsite density
   LMAXMIX     =    2 max onsite mixed and CHGCAR
   VOSKOWN=      0    Vosko Wilk Nusair interpolation
   ROPT   =    0.00000   0.00000
 Ionic relaxation
   EDIFFG = 0.1E-06   stopping-criterion for IOM
   NSW    =      0    number of steps for IOM
   NBLOCK =      1;   KBLOCK =      1    inner block; outer block
   IBRION =     -1    ionic relax: 0-MD 1-quasi-New 2-CG
   NFREE  =      0    steps in history (QN), initial steepest desc. (CG)
   ISIF   =      0    stress and relaxation
   IWAVPR =     10    prediction:  0-non 1-charg 2-wave 3-comb
   ISYM   =      3    0-nonsym 1-usesym 2-fastsym
   LCORR  =      T    Harris-Foulkes like correction to forces

   POTIM  = 0.5000    time-step for ionic-motion
   TEIN   =    0.0    initial temperature
[...]
  458            redis_pw                              0.057929                       90   5
  459              m_alltoall_d                          0.055199                    360   6
  460            m_sumb_d                              0.023270                       30   5
  461          overl1                                0.000131                         90   4
  462        redis_pw                              0.035782                           45   3
  463          m_alltoall_d                          0.034133                        225   4
  464        redis_proj                            0.004698                           45   3
  465          m_alltoall_d                          0.004586                        225   4
  466        densta                                0.018349                            1   3
  467          m_sumb_d                              0.000865                         19   4

 Flat profile

 fft3d                                1147.871994     1691698
 pw_charge_trace_mu_                   386.068172       16560
 vhamil_trace                          266.861952      810000
 m_ireduce_z_to                        171.947153       87840
 apply_gfac_exchange                   149.141366      790560
 m_ibcast_z_from                       115.751168       88540
 racc0mu_hf_                           114.691855       16560
 rpromu_hf                             112.242732       16830
 total_time                             27.532309           1
 fock_fwd                               25.978663         915
 fock_set_gfac_vkpt                     25.407186        9495
 pdssyex_zheevx                         17.524920         305
 m_alltoall_d                           13.774471       46545
 m_sumb_d                               12.777502        6137
 depsum_two_bands_rholm_trace_          12.001247      831960
 calc_dllmm_trans                       10.760775      844560
 edwav                                   9.283350          60
 lr_optic                                8.744823           1
 fftwav                                  7.869704       15820
 eccp                                    6.210805        5400
 pw_charge_trace                         6.082178       19440
 rpro1_hf                                5.415281       38880
 ggaall_grid                             5.305568          63
 apply_gfac                              4.686878       38880
 fock_all_dblbuf                         4.586213          61
 phaser_hf                               4.581123        9495
 apply_gfac_qder                         4.218120       19440
 racc0_hf                                4.119329       38880
 choleski                                3.896533         305
 gemm                                    3.104650       57825
 vhamil                                  2.935355        1830
 m_alltoallv_z                           2.372308        1065
 dfftw_execute                           2.203383        2826
 phase                                   2.027837         656
 proj1                                   2.009179        2955
 fft3d_mpi                               1.797420     1676820
 work_mul_crexp                          1.778880       57825
 crexp_mul_wave                          1.768863       44325
 overl_fock                              1.682708      829440
 orth1                                   1.534060        3660
 fftbas_plan_mpi                         1.466279         942
 lincom                                  1.392847         910
 w1_copy                                 0.837568       13975
 elmin_all                               0.774956           1
 potlok                                  0.672444          62
 w1_dscal                                0.600034        1800
 pw_charge                               0.458657        1098
 fock_set_fsg                            0.443817           2
 fft_and_gather                          0.385273         920
 depsum_two_bands_rholm_trace_m          0.359638       16560
 depsum_two_bands_rholm_trace            0.321278      831960
 force_and_stress                        0.279941           1
 soft_charge_sym                         0.259114          61
 apply_gfac_weight                       0.217487        2520
 inisym                                  0.206407           1
 waitgth                                 0.201332         915
 fornl                                   0.168815           1
 fock_bck                                0.156364         915
 waitred                                 0.155071         915
 projxyz                                 0.145566           5
 redis_pw                                0.143511        8310
 lrf_rphi0                               0.140965           3
 fftext_mpi                              0.140841        3750
 spher                                   0.135367          16
 wfinit                                  0.132726           1
 eddiag                                  0.129871           1
 m_bcast_z                               0.127841         721
 m_bcast_d                               0.109444          65
 map_gather                              0.098368        1065
 fock_charge_mu                          0.096828       16560
 densta                                  0.096193          63
 fock_force                              0.093657           1
 map_scatter                             0.081225        1065
 hamiltmu_commutator                     0.080664          15
 eddiag_lr                               0.079504           3
 reduce                                  0.066505         915
 vnlac0                                  0.064827        3855
 kinhamil                                0.056130        1830
 orthch                                  0.055711          61
 redis_proj                              0.050064       10080
 augmentation_charge                     0.047982          61
 racc0mu_hf                              0.045959       16560
 setdij_                                 0.038448          70
 pw_charge_trace_mu                      0.038258       16560
 dllmm_trans_eccp_nl_fock                0.038248         270
 eccp_nl_fock                            0.036752      113400
 FERMAT_RAZOR                            0.034283           1
 wrk_allocate                            0.034017           1
 fftwav_mpi                              0.033638       15820
 crpa_reader                             0.028754           1
 depsum_sym                              0.025577          61
 lrf_commutator                          0.023958           3
 rspher_all                              0.020262           4
 brgrid                                  0.018087           1
 overl                                   0.017994        2725
 spher_der                               0.017648           6
 set_dd_paw                              0.017144          63
 pothar                                  0.016677          62
 depsum_two_bands_rholm_trace_m          0.016247       16560
 posmap                                  0.009097           2
 overl1                                  0.008463        2010
 hamilt_local                            0.008309        1830
 forloc                                  0.007521           1
 forhar                                  0.007382           1
 fft_gq                                  0.007228          61
 set_charge                              0.007097          61
 proj                                    0.006998           5
 set_dd_magatom                          0.003537           2
 rotate_active_occupied_orbital          0.002930           1
 stufak                                  0.001996           1
 vectorpot                               0.001940           1
 rsp                                     0.001798           1
 map_backward                            0.001608        1000
 map_forward                             0.001379         884
 proall                                  0.001209           1
 fewald                                  0.001198           1
 fftbrc_mpi                              0.000526         942
 redis_pw_all                            0.000344          60
 contraction                             0.000291         270
 overl1_c                                0.000128          45
 redis_pw_over_bands                     0.000086          61
 wrk_deallocate                          0.000049           1
 rcp                                     0.000035           1
 potlok_metagga                          0.000027          61
 fordep                                  0.000016           1
 shift_bands_between_low_high            0.000000           5
  summed up times    2720.66227006912

 Accumulative profile

 total_time                           2720.662270           1
 elmin_all                            2578.457764           1
 edwav                                2516.641790          60
 fock_all_dblbuf                      2478.616719          61
 fock_fwd                             2178.219823         915
 fft3d                                1147.871994     1691698
 fft3d_mpi                            1136.315393     1676820
 fock_charge_mu                        513.019193       16560
 pw_charge_trace_mu                    386.106429       16560
 pw_charge_trace_mu_                   386.068172       16560
 vhamil_trace                          266.861952      810000
 reduce                                172.013658         915
 m_ireduce_z_to                        171.947153       87840
 apply_gfac_exchange                   149.141366      790560
 fft_and_gather                        118.230879         920
 m_ibcast_z_from                       115.751168       88540
 racc0mu_hf                            114.737814       16560
 racc0mu_hf_                           114.691855       16560
 rpromu_hf                             112.242732       16830
 lr_optic                              102.471263           1
 eddiag                                 42.068057           1
 fock_set_gfac_vkpt                     29.988309        9495
 fftwav_mpi                             27.482438       15820
 fftwav                                 27.448801       15820
 pdssyex_zheevx                         17.559203         305
 m_alltoall_d                           13.774471       46545
 m_sumb_d                               12.777502        6137
 depsum_two_bands_rholm_trace           12.322525      831960
 depsum_two_bands_rholm_trace_m         12.078122       16560
 depsum_two_bands_rholm_trace_m         12.061875       16560
 depsum_two_bands_rholm_trace_          12.001247      831960
 calc_dllmm_trans                       10.760775      844560
 redis_pw                                9.666334        8310
 potlok                                  9.145680          62
 force_and_stress                        9.035730           1
 fock_force                              8.295171           1
 set_charge                              8.136560          61
 soft_charge_sym                         7.765520          61
 hamilt_local                            6.916659        1830
 fftbrc_mpi                              6.225076         942
 fftbas_plan_mpi                         6.224550         942
 eccp                                    6.210805        5400
 pw_charge_trace                         6.082178       19440
 fftext_mpi                              5.466457        3750
 rpro1_hf                                5.415281       38880
 orthch                                  5.407533          61
 ggaall_grid                             5.305568          63
 vnlac0                                  4.948357        3855
 apply_gfac                              4.686878       38880
 phaser_hf                               4.581123        9495
 redis_proj                              4.301712       10080
 apply_gfac_qder                         4.218120       19440
 racc0_hf                                4.119329       38880
 kinhamil                                3.972995        1830
 choleski                                3.896533         305
 proj1                                   3.778041        2955
 fock_bck                                3.757460         915
 gemm                                    3.104650       57825
 vhamil                                  2.935355        1830
 fft_gq                                  2.514071          61
 set_dd_paw                              2.437359          63
 m_alltoallv_z                           2.372308        1065
 dfftw_execute                           2.203383        2826
 map_backward                            2.186564        1000
 phase                                   2.027837         656
 work_mul_crexp                          1.778880       57825
 crexp_mul_wave                          1.768863       44325
 overl_fock                              1.682708      829440
 orth1                                   1.534060        3660
 lincom                                  1.392847         910
 lrf_rphi0                               1.008008           3
 w1_copy                                 0.837568       13975
 lrf_commutator                          0.641941           3
 w1_dscal                                0.600034        1800
 pw_charge                               0.458657        1098
 fock_set_fsg                            0.443817           2
 redis_pw_over_bands                     0.375866          61
 redis_pw_all                            0.375780          60
 hamiltmu_commutator                     0.369904          15
 map_forward                             0.368324         884
 fornl                                   0.273748           1
 wfinit                                  0.269378           1
 wrk_allocate                            0.257582           1
 dllmm_trans_eccp_nl_fock                0.253276         270
 apply_gfac_weight                       0.217487        2520
 inisym                                  0.215504           1
 augmentation_charge                     0.212091          61
 waitgth                                 0.201332         915
 eddiag_lr                               0.174644           3
 waitred                                 0.155071         915
 depsum_sym                              0.151853          61
 projxyz                                 0.145566           5
 spher                                   0.135367          16
 densta                                  0.132759          63
 m_bcast_z                               0.127841         721
 m_bcast_d                               0.109444          65
 spher_der                               0.102627           6
 setdij_                                 0.100643          70
 map_gather                              0.098368        1065
 map_scatter                             0.081225        1065
 proall                                  0.072991           1
 proj                                    0.055352           5
 pothar                                  0.045863          62
 eccp_nl_fock                            0.036752      113400
 FERMAT_RAZOR                            0.034283           1
 crpa_reader                             0.028754           1
 rspher_all                              0.020262           4
 fewald                                  0.018673           1
 brgrid                                  0.018087           1
 overl                                   0.017994        2725
 forhar                                  0.011799           1
 posmap                                  0.009097           2
 overl1                                  0.008463        2010
 forloc                                  0.007563           1
 fordep                                  0.005162           1
 set_dd_magatom                          0.003537           2
 rotate_active_occupied_orbital          0.002930           1
 stufak                                  0.001996           1
 vectorpot                               0.001940           1
 rsp                                     0.001798           1
 contraction                             0.000291         270
 overl1_c                                0.000128          45
 wrk_deallocate                          0.000049           1
 rcp                                     0.000035           1
 potlok_metagga                          0.000027          61
 shift_bands_between_low_high            0.000000           5

Profiling took   2.264253  0.947685  0.003989  0.003920 seconds
Profiling took   2.114864 seconds