 vasp.6.3.2 27Jun22 (build Dec 22 2022 13:13:19) complex

 executed on             LinuxIFC date 2023.11.03  13:48:31

 INCAR:
   SYSTEM = SC
   ISTART = 0
   ICHARG = 2
   PREC = Accurate
   ENCUT = 450
   LCHARG = .TRUE.
   LWAVE = .TRUE.
   ALGO = Normal
   NELM = 64
   EDIFF = 1E-6
   EDIFFG = -1E-3
   SIGMA = 0.1
   ISMEAR = 0
   SYMPREC = 1E-6
   IBRION = -1
   GGA = PE
   IVDW = 12

 POTCAR:    PAW_PBE C 08Apr2002
 POTCAR:    PAW_PBE C 08Apr2002
   VRHFIN =C: s2p2

   TITEL  = PAW_PBE C 08Apr2002
   POMASS =   12.011; ZVAL   =    4.000    mass and valenz
   ENMAX  =  400.000; ENMIN  =  300.000 eV

  PAW_PBE C 08Apr2002                   :

 POSCAR: Graphene with lattice parameter 2.467
  positions in direct lattice
 exchange correlation table for  LEXCH =        8
   RHO(1)=    0.500       N(1)  =     2000
   RHO(2)=  100.500       N(2)  =     4000

 VTST: version 4.2, (08/11/21)

 CHAIN: initializing optimizer

 OPT: Using VASP Dynamics algorithm
 CHAIN: Read ICHAIN            0

 POSCAR: Graphene with lattice parameter 2.467
  positions in direct lattice

 ion  position               nearest neighbor table
   1  0.333  0.667  0.100-   2 1.42   2 1.42   2 1.42
   2  0.667  0.333  0.100-   1 1.42   1 1.42   1 1.42

  LATTYP: Found a hexagonal cell.
 ALAT       =     2.4669998518
 C/A-ratio  =     6.0802597897

  Lattice vectors:

 A1 = (   2.1364845000,   1.2335000000,   0.0000000000)
 A2 = (  -2.1364845000,   1.2335000000,   0.0000000000)
 A3 = (   0.0000000000,   0.0000000000,  15.0000000000)

Analysis of symmetry for initial positions (statically):
 Subroutine PRICEL returns:
 Original cell was already a primitive cell.

 Routine SETGRP: Setting up the symmetry group for a
 hexagonal supercell.

 Subroutine GETGRP returns: Found  8 space group operations
 (whereof  2 operations were pure point group operations)
 out of a pool of 24 trial point group operations.

The static configuration has the point symmetry C_1h.
 The point group associated with its full space group is D_2h.

Analysis of symmetry for dynamics (positions and initial velocities):
 Subroutine PRICEL returns:
 Original cell was already a primitive cell.

 Routine SETGRP: Setting up the symmetry group for a
 hexagonal supercell.

 Subroutine GETGRP returns: Found  8 space group operations
 (whereof  2 operations were pure point group operations)
 out of a pool of 24 trial point group operations.

The dynamic configuration has the point symmetry C_1h.
 The point group associated with its full space group is D_2h.

 Subroutine INISYM returns: Found  8 space group operations
 (whereof  2 operations are pure point group operations),
 and found     1 'primitive' translations

                                     Primitive cell

  volume of cell :      79.0606

  direct lattice vectors                    reciprocal lattice vectors
     2.136484500  1.233500000  0.000000000     0.234029313  0.405350628  0.000000000
    -2.136484500  1.233500000  0.000000000    -0.234029313  0.405350628  0.000000000
     0.000000000  0.000000000 15.000000000     0.000000000  0.000000000  0.066666667

  length of vectors
     2.466999852  2.466999852 15.000000000     0.468058598  0.468058598  0.066666667

  position of ions in fractional coordinates (direct lattice)
     0.333333000  0.666666000  0.100000000
     0.666666000  0.333333000  0.100000000

  ion indices of the primitive-cell ions
   primitive index   ion index
                 1           1
                 2           2

 KPOINTS: k-points

Automatic generation of k-mesh.
 Grid dimensions read from file:
 generate k-points for:   33   33    1

 Generating k-lattice:

  Cartesian coordinates                     Fractional coordinates (reciprocal lattice)
     0.007091797  0.012283352  0.000000000     0.030303030 -0.000000000  0.000000000
    -0.007091797  0.012283352  0.000000000    -0.000000000  0.030303030  0.000000000
     0.000000000  0.000000000  0.066666667     0.000000000  0.000000000  1.000000000

  Length of vectors
     0.014183594  0.014183594  0.066666667

  Shift w.r.t. Gamma in fractional coordinates (k-lattice)
     0.000000000  0.000000000  0.000000000

 Subroutine IBZKPT returns following result:

 Found    289 irreducible k-points:

 Following reciprocal coordinates:
            Coordinates               Weight
  0.000000  0.000000  0.000000      1.000000
  0.030303 -0.000000  0.000000      4.000000
 -0.030303  0.030303  0.000000      2.000000
  0.060606 -0.000000  0.000000      4.000000
 -0.060606  0.060606  0.000000      2.000000
  0.090909 -0.000000  0.000000      4.000000
 -0.090909  0.090909  0.000000      2.000000
  0.121212 -0.000000  0.000000      4.000000
 -0.121212  0.121212  0.000000      2.000000
  0.151515  0.000000  0.000000      4.000000
 -0.151515  0.151515  0.000000      2.000000
  0.181818 -0.000000  0.000000      4.000000
 -0.181818  0.181818  0.000000      2.000000
  0.212121 -0.000000  0.000000      4.000000
 -0.212121  0.212121  0.000000      2.000000
  0.242424 -0.000000  0.000000      4.000000
 -0.242424  0.242424  0.000000      2.000000
  0.272727  0.000000  0.000000      4.000000
 -0.272727  0.272727  0.000000      2.000000
  0.303030 -0.000000  0.000000      4.000000
 -0.303030  0.303030  0.000000      2.000000
  0.333333 -0.000000  0.000000      4.000000
 -0.333333  0.333333  0.000000      2.000000
  0.363636 -0.000000  0.000000      4.000000
 -0.363636  0.363636  0.000000      2.000000
  0.393939  0.000000  0.000000      4.000000
 -0.393939  0.393939  0.000000      2.000000
  0.424242 -0.000000  0.000000      4.000000
 -0.424242  0.424242  0.000000      2.000000
  0.454545 -0.000000  0.000000      4.000000
 -0.454545  0.454545  0.000000      2.000000
  0.484848 -0.000000  0.000000      4.000000
 -0.484848  0.484848  0.000000      2.000000
  0.030303  0.030303  0.000000      2.000000
 -0.030303  0.060606  0.000000      4.000000
  0.060606  0.030303  0.000000      4.000000
 -0.030303  0.090909  0.000000      4.000000
 -0.090909  0.060606  0.000000      4.000000
  0.090909  0.030303  0.000000      4.000000
 -0.030303  0.121212  0.000000      4.000000
 -0.121212  0.090909  0.000000      4.000000
  0.121212  0.030303  0.000000      4.000000
 -0.030303  0.151515  0.000000      4.000000
 -0.151515  0.121212  0.000000      4.000000
  0.151515  0.030303  0.000000      4.000000
 -0.030303  0.181818  0.000000      4.000000
 -0.181818  0.151515  0.000000      4.000000
  0.181818  0.030303  0.000000      4.000000
 -0.030303  0.212121  0.000000      4.000000
 -0.212121  0.181818  0.000000      4.000000
  0.212121  0.030303  0.000000      4.000000
 -0.030303  0.242424  0.000000      4.000000
 -0.242424  0.212121  0.000000      4.000000
  0.242424  0.030303  0.000000      4.000000
 -0.030303  0.272727  0.000000      4.000000
 -0.272727  0.242424  0.000000      4.000000
  0.272727  0.030303  0.000000      4.000000
 -0.030303  0.303030  0.000000      4.000000
 -0.303030  0.272727  0.000000      4.000000
  0.303030  0.030303  0.000000      4.000000
[...]
 -0.272727 -0.454545  0.000000      4.000000
  0.303030  0.272727  0.000000      4.000000
 -0.272727 -0.424242  0.000000      4.000000
  0.424242  0.303030  0.000000      4.000000
  0.333333  0.272727  0.000000      4.000000
 -0.272727 -0.393939  0.000000      4.000000
  0.393939  0.333333  0.000000      4.000000
  0.363636  0.272727  0.000000      4.000000
  0.363636  0.363636  0.000000      2.000000
  0.303030  0.303030  0.000000      2.000000
 -0.303030 -0.393939  0.000000      4.000000
  0.333333  0.303030  0.000000      4.000000
 -0.303030 -0.363636  0.000000      4.000000
  0.363636  0.333333  0.000000      4.000000
  0.333333  0.333333  0.000000      2.000000

 Following cartesian coordinates:
            Coordinates               Weight
  0.000000  0.000000  0.000000      1.000000
  0.007092  0.012283  0.000000      4.000000
 -0.014184  0.000000  0.000000      2.000000
  0.014184  0.024567  0.000000      4.000000
 -0.028367  0.000000  0.000000      2.000000
  0.021275  0.036850  0.000000      4.000000
 -0.042551 -0.000000  0.000000      2.000000
  0.028367  0.049133  0.000000      4.000000
 -0.056734  0.000000  0.000000      2.000000
  0.035459  0.061417  0.000000      4.000000
 -0.070918  0.000000  0.000000      2.000000
  0.042551  0.073700  0.000000      4.000000
 -0.085102  0.000000  0.000000      2.000000
  0.049643  0.085983  0.000000      4.000000
 -0.099285 -0.000000  0.000000      2.000000
  0.056734  0.098267  0.000000      4.000000
 -0.113469  0.000000  0.000000      2.000000
  0.063826  0.110550  0.000000      4.000000
 -0.127652 -0.000000  0.000000      2.000000
  0.070918  0.122834  0.000000      4.000000
 -0.141836  0.000000  0.000000      2.000000
  0.078010  0.135117  0.000000      4.000000
 -0.156020  0.000000  0.000000      2.000000
  0.085102  0.147400  0.000000      4.000000
 -0.170203 -0.000000  0.000000      2.000000
  0.092193  0.159684  0.000000      4.000000
 -0.184387  0.000000  0.000000      2.000000
  0.099285  0.171967  0.000000      4.000000
 -0.198570 -0.000000  0.000000      2.000000
  0.106377  0.184250  0.000000      4.000000
 -0.212754 -0.000000  0.000000      2.000000
  0.113469  0.196534  0.000000      4.000000
 -0.226938  0.000000  0.000000      2.000000
 -0.000000  0.024567  0.000000      2.000000
 -0.021275  0.012283  0.000000      4.000000
  0.007092  0.036850  0.000000      4.000000
 -0.028367  0.024567  0.000000      4.000000
 -0.035459 -0.012283  0.000000      4.000000
  0.014184  0.049133  0.000000      4.000000
 -0.035459  0.036850  0.000000      4.000000
 -0.049643 -0.012283  0.000000      4.000000
  0.021275  0.061417  0.000000      4.000000
 -0.042551  0.049133  0.000000      4.000000
 -0.063826 -0.012283  0.000000      4.000000
  0.028367  0.073700  0.000000      4.000000
 -0.049643  0.061417  0.000000      4.000000
 -0.078010 -0.012283  0.000000      4.000000
  0.035459  0.085983  0.000000      4.000000
 -0.056734  0.073700  0.000000      4.000000
 -0.092193 -0.012283  0.000000      4.000000
  0.042551  0.098267  0.000000      4.000000
 -0.063826  0.085983  0.000000      4.000000
 -0.106377 -0.012283  0.000000      4.000000
  0.049643  0.110550  0.000000      4.000000
 -0.070918  0.098267  0.000000      4.000000
 -0.120561 -0.012283  0.000000      4.000000
  0.056734  0.122834  0.000000      4.000000
 -0.078010  0.110550  0.000000      4.000000
 -0.134744 -0.012283  0.000000      4.000000
  0.063826  0.135117  0.000000      4.000000
[...]
  0.042551 -0.294800  0.000000      4.000000
  0.007092  0.233384  0.000000      4.000000
  0.035459 -0.282517  0.000000      4.000000
  0.028367  0.294800  0.000000      4.000000
  0.014184  0.245667  0.000000      4.000000
  0.028367 -0.270234  0.000000      4.000000
  0.014184  0.294800  0.000000      4.000000
  0.021275  0.257950  0.000000      4.000000
 -0.000000  0.294800  0.000000      2.000000
 -0.000000  0.245667  0.000000      2.000000
  0.021275 -0.282517  0.000000      4.000000
  0.007092  0.257950  0.000000      4.000000
  0.014184 -0.270234  0.000000      4.000000
  0.007092  0.282517  0.000000      4.000000
  0.000000  0.270234  0.000000      2.000000

 SYSTEM =  SC
[...]
   0.30303030  0.03030303  0.00000000       0.004
[...]
  -0.27272727 -0.45454545  0.00000000       0.004
   0.30303030  0.27272727  0.00000000       0.004
  -0.27272727 -0.42424242  0.00000000       0.004
   0.42424242  0.30303030  0.00000000       0.004
   0.33333333  0.27272727  0.00000000       0.004
  -0.27272727 -0.39393939  0.00000000       0.004
   0.39393939  0.33333333  0.00000000       0.004
   0.36363636  0.27272727  0.00000000       0.004
   0.36363636  0.36363636  0.00000000       0.002
   0.30303030  0.30303030  0.00000000       0.002
  -0.30303030 -0.39393939  0.00000000       0.004
   0.33333333  0.30303030  0.00000000       0.004
  -0.30303030 -0.36363636  0.00000000       0.004
   0.36363636  0.33333333  0.00000000       0.004
   0.33333333  0.33333333  0.00000000       0.002

 position of ions in fractional coordinates (direct lattice)
   0.33333300  0.66666600  0.10000000
   0.66666600  0.33333300  0.10000000

 position of ions in cartesian coordinates  (Angst):
  -0.71216079  1.23349877  1.50000000
   0.71216079  1.23349877  1.50000000

 k-point   1 :   0.0000 0.0000 0.0000  plane waves:    1749
 k-point   2 :   0.0303-0.0000 0.0000  plane waves:    1741
 k-point   3 :  -0.0303 0.0303 0.0000  plane waves:    1741
 k-point   4 :   0.0606-0.0000 0.0000  plane waves:    1743
 k-point   5 :  -0.0606 0.0606 0.0000  plane waves:    1743
 k-point   6 :   0.0909-0.0000 0.0000  plane waves:    1731
 k-point   7 :  -0.0909 0.0909 0.0000  plane waves:    1731
 k-point   8 :   0.1212-0.0000 0.0000  plane waves:    1717
 k-point   9 :  -0.1212 0.1212 0.0000  plane waves:    1717
 k-point  10 :   0.1515 0.0000 0.0000  plane waves:    1723
 k-point  11 :  -0.1515 0.1515 0.0000  plane waves:    1723
 k-point  12 :   0.1818-0.0000 0.0000  plane waves:    1717
 k-point  13 :  -0.1818 0.1818 0.0000  plane waves:    1717
 k-point  14 :   0.2121-0.0000 0.0000  plane waves:    1721
 k-point  15 :  -0.2121 0.2121 0.0000  plane waves:    1721
 k-point  16 :   0.2424-0.0000 0.0000  plane waves:    1713
 k-point  17 :  -0.2424 0.2424 0.0000  plane waves:    1713
 k-point  18 :   0.2727 0.0000 0.0000  plane waves:    1699
 k-point  19 :  -0.2727 0.2727 0.0000  plane waves:    1699
 k-point  20 :   0.3030-0.0000 0.0000  plane waves:    1693
 k-point  21 :  -0.3030 0.3030 0.0000  plane waves:    1693
 k-point  22 :   0.3333-0.0000 0.0000  plane waves:    1704
 k-point  23 :  -0.3333 0.3333 0.0000  plane waves:    1704
 k-point  24 :   0.3636-0.0000 0.0000  plane waves:    1704
 k-point  25 :  -0.3636 0.3636 0.0000  plane waves:    1704
 k-point  26 :   0.3939 0.0000 0.0000  plane waves:    1702
 k-point  27 :  -0.3939 0.3939 0.0000  plane waves:    1702
 k-point  28 :   0.4242-0.0000 0.0000  plane waves:    1720
 k-point  29 :  -0.4242 0.4242 0.0000  plane waves:    1720
 k-point  30 :   0.4545-0.0000 0.0000  plane waves:    1722
 k-point  31 :  -0.4545 0.4545 0.0000  plane waves:    1722
 k-point  32 :   0.4848-0.0000 0.0000  plane waves:    1724
 k-point  33 :  -0.4848 0.4848 0.0000  plane waves:    1724
 k-point  34 :   0.0303 0.0303 0.0000  plane waves:    1743
 k-point  35 :  -0.0303 0.0606 0.0000  plane waves:    1743
 k-point  36 :   0.0606 0.0303 0.0000  plane waves:    1731
 k-point  37 :  -0.0303 0.0909 0.0000  plane waves:    1731
 k-point  38 :  -0.0909 0.0606 0.0000  plane waves:    1731
 k-point  39 :   0.0909 0.0303 0.0000  plane waves:    1728
 k-point  40 :  -0.0303 0.1212 0.0000  plane waves:    1728
 k-point  41 :  -0.1212 0.0909 0.0000  plane waves:    1728
 k-point  42 :   0.1212 0.0303 0.0000  plane waves:    1720
 k-point  43 :  -0.0303 0.1515 0.0000  plane waves:    1720
 k-point  44 :  -0.1515 0.1212 0.0000  plane waves:    1720
 k-point  45 :   0.1515 0.0303 0.0000  plane waves:    1725
 k-point  46 :  -0.0303 0.1818 0.0000  plane waves:    1725
 k-point  47 :  -0.1818 0.1515 0.0000  plane waves:    1725
 k-point  48 :   0.1818 0.0303 0.0000  plane waves:    1717
 k-point  49 :  -0.0303 0.2121 0.0000  plane waves:    1717
 k-point  50 :  -0.2121 0.1818 0.0000  plane waves:    1717
 k-point  51 :   0.2121 0.0303 0.0000  plane waves:    1712
 k-point  52 :  -0.0303 0.2424 0.0000  plane waves:    1712
 k-point  53 :  -0.2424 0.2121 0.0000  plane waves:    1712
 k-point  54 :   0.2424 0.0303 0.0000  plane waves:    1703
 k-point  55 :  -0.0303 0.2727 0.0000  plane waves:    1703
 k-point  56 :  -0.2727 0.2424 0.0000  plane waves:    1703
 k-point  57 :   0.2727 0.0303 0.0000  plane waves:    1694
 k-point  58 :  -0.0303 0.3030 0.0000  plane waves:    1694
 k-point  59 :  -0.3030 0.2727 0.0000  plane waves:    1694
 k-point  60 :   0.3030 0.0303 0.0000  plane waves:    1705
[...]
 k-point 275 :  -0.2727-0.4545 0.0000  plane waves:    1696
 k-point 276 :   0.3030 0.2727 0.0000  plane waves:    1710
 k-point 277 :  -0.2727-0.4242 0.0000  plane waves:    1710
 k-point 278 :   0.4242 0.3030 0.0000  plane waves:    1710
 k-point 279 :   0.3333 0.2727 0.0000  plane waves:    1710
 k-point 280 :  -0.2727-0.3939 0.0000  plane waves:    1710
 k-point 281 :   0.3939 0.3333 0.0000  plane waves:    1710
 k-point 282 :   0.3636 0.2727 0.0000  plane waves:    1716
 k-point 283 :   0.3636 0.3636 0.0000  plane waves:    1716
 k-point 284 :   0.3030 0.3030 0.0000  plane waves:    1712
 k-point 285 :  -0.3030-0.3939 0.0000  plane waves:    1712
 k-point 286 :   0.3333 0.3030 0.0000  plane waves:    1712
 k-point 287 :  -0.3030-0.3636 0.0000  plane waves:    1712
 k-point 288 :   0.3636 0.3333 0.0000  plane waves:    1712
 k-point 289 :   0.3333 0.3333 0.0000  plane waves:    1710

 maximum and minimum number of plane-waves per node :      1749     1693

 maximum number of plane-waves:      1749
 maximum index in each direction:
   IXMAX=    4   IYMAX=    4   IZMAX=   25
   IXMIN=   -4   IYMIN=   -4   IZMIN=  -25

 serial   3D FFT for wavefunctions
 parallel 3D FFT for charge:
    minimum data exchange during FFTs selected (reduces bandwidth)

 Broyden mixing: mesh for mixing (old mesh)
   NGX =  9   NGY =  9   NGZ = 51
  (NGX  = 36   NGY  = 36   NGZ  =216)
  gives a total of   4131 points

 initial charge density was supplied:
 charge density of overlapping atoms calculated
 number of electron       8.0000000 magnetization
 keeping initial charge density in first step

 Maximum index for augmentation-charges            0 (set IRDMAX)

 First call to EWALD:  gamma=   0.413
 Maximum number of real-space cells 5x 5x 1
 Maximum number of reciprocal cells 2x 2x 8

--------------------------------------- Iteration      1(   1)  ---------------------------------------

 eigenvalue-minimisations  : 27744
 total energy-change (2. order) :-0.9951024E+01  (-0.3922147E+03)
 number of electron       8.0000000 magnetization
 augmentation part        8.0000000 magnetization

 Free energy of the ion-electron system (eV)
  alpha Z        PSCENC =         4.15613880
  Ewald energy   TEWEN  =       835.74592742
  -Hartree energ DENC   =     -1054.63223210
  -exchange      EXHF   =         0.00000000
  -V(xc)+E(xc)   XCENC  =        26.35432790
  PAW double counting   =       217.04409276     -218.18290438
  entropy T*S    EENTRO =        -0.00000535
  eigenvalues    EBANDS =      -114.72512639
  atomic energy  EATOM  =       294.28875697
  Solvation  Ediel_sol  =         0.00000000
  free energy    TOTEN  =        -9.95102436 eV

  energy without entropy =       -9.95101901  energy(sigma->0) =       -9.95102168

[...]

 Broyden mixing:
  rms(total) = 0.63325E+00    rms(broyden)= 0.63317E+00
  rms(prec ) = 0.70866E+00
  weight for this iteration     100.00

[...]

 eigenvalue-minimisations  : 41616
 total energy-change (2. order) : 0.9072352E+00  (-0.8848656E-01)
 number of electron       7.9999998 magnetization
 augmentation part        0.2029125 magnetization

[...]

 eigenvalues of (default mixing * dielectric matrix)
  average eigenvalue GAMMA=   2.2057
  2.2057

[...]

 eigenvalue-minimisations  : 43056
 total energy-change (2. order) : 0.1162534E-02  (-0.1519346E-03)
 number of electron       7.9999998 magnetization
 augmentation part        0.1916080 magnetization

[...]

 Broyden mixing:
  rms(total) = 0.75664E-05    rms(broyden)= 0.75651E-05
  rms(prec ) = 0.10364E-04
  weight for this iteration     100.00

 eigenvalues of (default mixing * dielectric matrix)
  average eigenvalue GAMMA=   3.1505
  9.6514  5.8098  4.0100  2.9690  2.7197  2.4435  1.9766  2.0707  0.9935  0.9935
  1.0174

[...]

--------------------------------------- Iteration      1(  17)  ---------------------------------------

 eigenvalue-minimisations  : 39744
 total energy-change (2. order) :-0.3280798E-06  (-0.9226572E-09)
 number of electron       7.9999998 magnetization
 augmentation part        0.1915429 magnetization

 Free energy of the ion-electron system (eV)
  alpha Z        PSCENC =         4.15613880
  Ewald energy   TEWEN  =       835.74592742
  -Hartree energ DENC   =     -1087.73751852
  -exchange      EXHF   =         0.00000000
  -V(xc)+E(xc)   XCENC  =        27.53615532
  PAW double counting   =       845.15745819     -846.52169478
  entropy T*S    EENTRO =        -0.00020723
  eigenvalues    EBANDS =       -91.07828722
  atomic energy  EATOM  =       294.28875697
  Solvation  Ediel_sol  =         0.00000000
  free energy    TOTEN  =       -18.45327105 eV

  energy without entropy =      -18.45306382  energy(sigma->0) =      -18.45316744

 average (electrostatic) potential at core
  the test charge radii are     0.6991
  (the norm of the test charge is              1.0000)
       1 -57.6941       2 -57.6941

 E-fermi :  -2.2530     XC(G=0):  -2.8674     alpha+bet : -2.5354

 Fermi energy:        -2.2530033337

 k-point     1 :       0.0000    0.0000    0.0000
  band No.  band energies     occupation
      1     -21.7571      2.00000
      2      -9.8606      2.00000
      3      -5.2826      2.00000
      4      -5.2826      2.00000
      5       1.0084      0.00000
      6       1.9135      0.00000
      7       2.4488      0.00000
      8       4.3405      0.00000
      9       5.0994      0.00000
     10       6.0630      0.00000
     11       6.0631      0.00000
     12       8.2381      0.00000
     13       9.1612      0.00000
     14       9.3517      0.00000
     15      10.2179      0.00000
     16      13.5628      0.00000
     17      15.0724      0.00000
     18      20.1265      0.00000
     19      20.2259      0.00000
     20      22.2220      0.00000
     21      25.9180      0.00000
     22      25.9180      0.00000
     23      27.1174      0.00000
     24      29.3325      0.00000
     25      29.3325      0.00000
     26      30.7216      0.00000
     27      31.4541      0.00000
     28      32.9459      0.00000
     29      32.9459      0.00000
     30      33.4523      0.00000
     31      33.4523      0.00000
     32      33.9409      0.00000
     33      34.1977      0.00000
     34      34.4800      0.00000
     35      35.1285      0.00000
     36      35.1285      0.00000
     37      35.2202      0.00000
     38      35.2202      0.00000
     39      35.2731      0.00000
     40      35.2732      0.00000
     41      35.3030      0.00000
     42      35.4029      0.00000
     43      35.4158      0.00000
     44      35.4158      0.00000
     45      35.6371      0.00000
     46      36.7427      0.00000
     47      37.3410      0.00000
     48      37.4552      0.00000

[...]

 k-point   289 :       0.3333    0.3333    0.0000
  band No.  band energies     occupation
      1     -14.8398      2.00000
      2     -14.8398      2.00000
      3     -12.7896      2.00000
      4      -2.2530      1.00011
      5      -2.2530      0.99989
      6       8.3638      0.00000
      7      10.6294      0.00000
      8      10.6294      0.00000
      9      11.2356      0.00000
     10      12.6777      0.00000
     11      12.6777      0.00000
     12      12.9632      0.00000
     13      12.9632      0.00000
     14      13.2035      0.00000
     15      13.5524      0.00000
     16      13.9173      0.00000
     17      13.9174      0.00000
     18      14.8829      0.00000
     19      15.1048      0.00000
     20      15.1048      0.00000
     21      16.2229      0.00000
     22      16.3832      0.00000
     23      16.3832      0.00000
     24      17.5090      0.00000
     25      18.8747      0.00000
     26      18.8747      0.00000
     27      20.4081      0.00000
     28      20.4081      0.00000
     29      20.5553      0.00000
     30      21.2574      0.00000
     31      22.5010      0.00000
     32      24.0599      0.00000
     33      24.0599      0.00000
     34      25.9755      0.00000
     35      25.9755      0.00000
     36      26.3296      0.00000
     37      26.6429      0.00000
     38      30.3075      0.00000
     39      30.3075      0.00000
     40      32.9739      0.00000
     41      32.9739      0.00000
     42      33.3651      0.00000
     43      33.5935      0.00000
     44      35.7242      0.00000
     45      35.7242      0.00000
     46      38.7598      0.00000
     47      40.6390      0.00000
     48      40.6390      0.00000

 soft charge-density along one line, spin component           1
         0         1         2         3         4         5         6         7         8         9
 total charge-density along one line

------------------------ aborting loop because EDIFF is reached ----------------------------------------

         DFTD3 V3.0 Rev 1
 IVDW         = 12
 DF pbe
 parameters
 VDW_S6       =    1.0000
 VDW_S8       =    0.7875
 VDW_A1       =    0.4289
 VDW_A2       =    4.4407
 k1-k3        =   16.0000    1.3333   -4.0000
 VDW_RADIUS   =   50.2022 A
 VDW_CNRADIUS =   21.1671 A
 Edisp (eV)   -0.17742

 E6    (eV) :    -0.1220
 E8    (eV) :    -0.0554
 % E8        : 31.25

  FORCE on cell =-STRESS in cart. coord.  units (eV):
  Direction    XX          YY          ZZ          XY          YZ          ZX
  Alpha Z     4.15614     4.15614     4.15614
  Ewald    1104.50998  1104.50935 -1373.27344     0.00000    -0.00000    -0.00000
  Hartree  1076.40946  1076.40937 -1065.08182    -0.00000     0.00000     0.00000
  E(xc)     -29.70164   -29.70164   -30.81525     0.00000    -0.00000    -0.00000
  Local   -2267.46568 -2267.46511  2334.80202     0.00000    -0.00000     0.00000
  n-local    -7.11405    -7.11406    -6.49580     0.01948    -0.00000     0.00000
  augment    -0.77710    -0.77708    -0.71678    -0.00000    -0.00000    -0.00000
  Kinetic   120.00334   120.00343   137.35869    -0.11571    -0.00000    -0.00000
  Fock        0.00000     0.00000     0.00000     0.00000     0.00000     0.00000
  vdW        -0.04475    -0.04475    -0.00146    -0.00000     0.00000    -0.00000
  Total      -0.02431    -0.02435    -0.06770     0.00000    -0.00000     0.00000
  in kB      -0.49263    -0.49355    -1.37197     0.00000    -0.00000     0.00000

 VOLUME and BASIS-vectors are now :
  energy-cutoff  :      450.00
  volume of cell :       79.06
      direct lattice vectors                 reciprocal lattice vectors
     2.136484500  1.233500000  0.000000000     0.234029313  0.405350628  0.000000000
    -2.136484500  1.233500000  0.000000000    -0.234029313  0.405350628  0.000000000
     0.000000000  0.000000000 15.000000000     0.000000000  0.000000000  0.066666667

  length of vectors
     2.466999852  2.466999852 15.000000000     0.468058598  0.468058598  0.066666667

 FORCES acting on ions
    electron-ion (+dipol)            ewald-force                    non-local-force                 convergence-correction
   0.221E-03 -.243E-07 0.242E-06   -.271E-03 0.289E-14 0.939E-15   -.250E-04 -.411E-17 -.556E-21   0.429E-06 0.196E-13 -.491E-09
   -.221E-03 -.243E-07 0.242E-06   0.271E-03 0.665E-15 -.162E-21   0.250E-04 0.745E-17 -.450E-21   -.429E-06 0.176E-13 -.491E-09
   -.117E-13 -.486E-07 0.484E-06   -.890E-15 0.355E-14 0.939E-15   -.401E-17 0.334E-17 -.101E-20   -.252E-15 0.372E-13 -.982E-09

 POSITION                                       TOTAL-FORCE (eV/Angst)
     -0.71216      1.23350      1.50000        -0.000074     -0.000000      0.000000
      0.71216      1.23350      1.50000         0.000074      0.000000     -0.000000
    total drift:                               -0.000000     -0.000000      0.000000

  FREE ENERGIE OF THE ION-ELECTRON SYSTEM (eV)
  free  energy   TOTEN  =       -18.63068955 eV

  energy  without entropy=      -18.63048232  energy(sigma->0) =      -18.63058594

 stress matrix after NEB project (eV)
     -0.02431     -0.00000      0.00000
      0.00000     -0.02435      0.00000
      0.00000     -0.00000     -0.06770
  FORCES: max atom, RMS     0.000074    0.000074
  FORCE total and by dimension    0.000105    0.000074
  Stress total and by dimension    0.075944    0.067701
 writing wavefunctions