 vasp.6.3.2 27Jun22 (build Dec 22 2022 13:13:19) complex

 executed on             LinuxIFC date 2023.11.05  13:12:33

 INCAR:
   SYSTEM = BS
   ISTART = 0
   ICHARG = 11
   PREC = Accurate
   LORBIT = 11
   ENCUT = 450
   ALGO = Normal
   NELM = 64
   EDIFF = 1E-6
   EDIFFG = -1E-3
   SIGMA = 0.1
   ISMEAR = 0
   GGA = PE
   IVDW = 12
   ISYM = 0

 POTCAR:    PAW_PBE C 08Apr2002
 POTCAR:    PAW_PBE C 08Apr2002
   VRHFIN =C: s2p2

   TITEL  = PAW_PBE C 08Apr2002
   POMASS =   12.011; ZVAL   =    4.000    mass and valenz
   ENMAX  =  400.000; ENMIN  =  300.000 eV

  PAW_PBE C 08Apr2002                   :

 POSCAR: Graphene with lattice parameter 2.467
  positions in direct lattice
  velocities in cartesian coordinates
 exchange correlation table for  LEXCH =        8
   RHO(1)=    0.500       N(1)  =     2000
   RHO(2)=  100.500       N(2)  =     4000

 VTST: version 4.2, (08/11/21)

 CHAIN: initializing optimizer

 OPT: Using VASP Dynamics algorithm
 CHAIN: Read ICHAIN            0

 POSCAR: Graphene with lattice parameter 2.467
  positions in direct lattice
  velocities in cartesian coordinates

 ion  position               nearest neighbor table
   1  0.333  0.667  0.100-   2 1.42   2 1.42   2 1.42
   2  0.667  0.333  0.100-   1 1.42   1 1.42   1 1.42

IMPORTANT INFORMATION: All symmetrisations will be switched off!
NOSYMM: (Re-)initialisation of all symmetry stuff for point group C_1.

                                     Primitive cell

  volume of cell :      79.0606

  direct lattice vectors                    reciprocal lattice vectors
     2.136484500  1.233500000  0.000000000     0.234029313  0.405350628  0.000000000
    -2.136484500  1.233500000  0.000000000    -0.234029313  0.405350628  0.000000000
     0.000000000  0.000000000 15.000000000     0.000000000  0.000000000  0.066666667

  length of vectors
     2.466999852  2.466999852 15.000000000     0.468058598  0.468058598  0.066666667

  position of ions in fractional coordinates (direct lattice)
     0.333333000  0.666666000  0.100000000
     0.666666000  0.333333000  0.100000000

  ion indices of the primitive-cell ions
   primitive index   ion index
                 1           1
                 2           2

 KPOINTS: K-points

Interpolating k-points between supplied coordinates.

 Line segments in fractional coordinates (reciprocal lattice):
    0.000000  0.000000  0.000000  ...  0.333000  0.333000  0.000000
    0.333000  0.333000  0.000000  ...  0.000000  0.500000  0.000000
    0.000000  0.500000  0.000000  ...  0.000000  0.000000  0.000000

 Generated   128 points on each line segment, for a total of    384 k-points:

 Following reciprocal coordinates:
            Coordinates               Weight
  0.000000  0.000000  0.000000      0.002604
  0.002622  0.002622  0.000000      0.002604
  0.005244  0.005244  0.000000      0.002604
  0.007866  0.007866  0.000000      0.002604
  0.010488  0.010488  0.000000      0.002604
  0.013110  0.013110  0.000000      0.002604
  0.015732  0.015732  0.000000      0.002604
  0.018354  0.018354  0.000000      0.002604
  0.020976  0.020976  0.000000      0.002604
  0.023598  0.023598  0.000000      0.002604
  0.026220  0.026220  0.000000      0.002604
  0.028843  0.028843  0.000000      0.002604
  0.031465  0.031465  0.000000      0.002604
  0.034087  0.034087  0.000000      0.002604
  0.036709  0.036709  0.000000      0.002604
  0.039331  0.039331  0.000000      0.002604
  0.041953  0.041953  0.000000      0.002604
  0.044575  0.044575  0.000000      0.002604
  0.047197  0.047197  0.000000      0.002604
  0.049819  0.049819  0.000000      0.002604
  0.052441  0.052441  0.000000      0.002604
  0.055063  0.055063  0.000000      0.002604
  0.057685  0.057685  0.000000      0.002604
  0.060307  0.060307  0.000000      0.002604
  0.062929  0.062929  0.000000      0.002604
  0.065551  0.065551  0.000000      0.002604
  0.068173  0.068173  0.000000      0.002604
  0.070795  0.070795  0.000000      0.002604
  0.073417  0.073417  0.000000      0.002604
  0.076039  0.076039  0.000000      0.002604
  0.078661  0.078661  0.000000      0.002604
  0.081283  0.081283  0.000000      0.002604
  0.083906  0.083906  0.000000      0.002604
  0.086528  0.086528  0.000000      0.002604
  0.089150  0.089150  0.000000      0.002604
  0.091772  0.091772  0.000000      0.002604
  0.094394  0.094394  0.000000      0.002604
  0.097016  0.097016  0.000000      0.002604
  0.099638  0.099638  0.000000      0.002604
  0.102260  0.102260  0.000000      0.002604
  0.104882  0.104882  0.000000      0.002604
  0.107504  0.107504  0.000000      0.002604
  0.110126  0.110126  0.000000      0.002604
  0.112748  0.112748  0.000000      0.002604
  0.115370  0.115370  0.000000      0.002604
  0.117992  0.117992  0.000000      0.002604
  0.120614  0.120614  0.000000      0.002604
  0.123236  0.123236  0.000000      0.002604
  0.125858  0.125858  0.000000      0.002604
  0.128480  0.128480  0.000000      0.002604
  0.131102  0.131102  0.000000      0.002604
  0.133724  0.133724  0.000000      0.002604
  0.136346  0.136346  0.000000      0.002604
  0.138969  0.138969  0.000000      0.002604
  0.141591  0.141591  0.000000      0.002604
  0.144213  0.144213  0.000000      0.002604
  0.146835  0.146835  0.000000      0.002604
  0.149457  0.149457  0.000000      0.002604
  0.152079  0.152079  0.000000      0.002604
  0.154701  0.154701  0.000000      0.002604
[...]
  0.000000  0.055118  0.000000      0.002604
  0.000000  0.051181  0.000000      0.002604
  0.000000  0.047244  0.000000      0.002604
  0.000000  0.043307  0.000000      0.002604
  0.000000  0.039370  0.000000      0.002604
  0.000000  0.035433  0.000000      0.002604
  0.000000  0.031496  0.000000      0.002604
  0.000000  0.027559  0.000000      0.002604
  0.000000  0.023622  0.000000      0.002604
  0.000000  0.019685  0.000000      0.002604
  0.000000  0.015748  0.000000      0.002604
  0.000000  0.011811  0.000000      0.002604
  0.000000  0.007874  0.000000      0.002604
  0.000000  0.003937  0.000000      0.002604
  0.000000  0.000000  0.000000      0.002604

 Following cartesian coordinates:
            Coordinates               Weight
  0.000000  0.000000  0.000000      0.002604
  0.000000  0.002126  0.000000      0.002604
  0.000000  0.004251  0.000000      0.002604
  0.000000  0.006377  0.000000      0.002604
  0.000000  0.008503  0.000000      0.002604
 -0.000000  0.010628  0.000000      0.002604
  0.000000  0.012754  0.000000      0.002604
  0.000000  0.014880  0.000000      0.002604
  0.000000  0.017006  0.000000      0.002604
 -0.000000  0.019131  0.000000      0.002604
 -0.000000  0.021257  0.000000      0.002604
  0.000000  0.023383  0.000000      0.002604
  0.000000  0.025508  0.000000      0.002604
 -0.000000  0.027634  0.000000      0.002604
  0.000000  0.029760  0.000000      0.002604
 -0.000000  0.031885  0.000000      0.002604
  0.000000  0.034011  0.000000      0.002604
 -0.000000  0.036137  0.000000      0.002604
 -0.000000  0.038263  0.000000      0.002604
  0.000000  0.040388  0.000000      0.002604
 -0.000000  0.042514  0.000000      0.002604
  0.000000  0.044640  0.000000      0.002604
  0.000000  0.046765  0.000000      0.002604
 -0.000000  0.048891  0.000000      0.002604
  0.000000  0.051017  0.000000      0.002604
 -0.000000  0.053142  0.000000      0.002604
 -0.000000  0.055268  0.000000      0.002604
  0.000000  0.057394  0.000000      0.002604
  0.000000  0.059520  0.000000      0.002604
 -0.000000  0.061645  0.000000      0.002604
 -0.000000  0.063771  0.000000      0.002604
 -0.000000  0.065897  0.000000      0.002604
  0.000000  0.068022  0.000000      0.002604
  0.000000  0.070148  0.000000      0.002604
 -0.000000  0.072274  0.000000      0.002604
 -0.000000  0.074399  0.000000      0.002604
 -0.000000  0.076525  0.000000      0.002604
  0.000000  0.078651  0.000000      0.002604
  0.000000  0.080776  0.000000      0.002604
  0.000000  0.082902  0.000000      0.002604
 -0.000000  0.085028  0.000000      0.002604
 -0.000000  0.087154  0.000000      0.002604
  0.000000  0.089279  0.000000      0.002604
  0.000000  0.091405  0.000000      0.002604
  0.000000  0.093531  0.000000      0.002604
 -0.000000  0.095656  0.000000      0.002604
 -0.000000  0.097782  0.000000      0.002604
 -0.000000  0.099908  0.000000      0.002604
  0.000000  0.102033  0.000000      0.002604
  0.000000  0.104159  0.000000      0.002604
 -0.000000  0.106285  0.000000      0.002604
  0.000000  0.108411  0.000000      0.002604
 -0.000000  0.110536  0.000000      0.002604
 -0.000000  0.112662  0.000000      0.002604
  0.000000  0.114788  0.000000      0.002604
 -0.000000  0.116913  0.000000      0.002604
  0.000000  0.119039  0.000000      0.002604
 -0.000000  0.121165  0.000000      0.002604
 -0.000000  0.123290  0.000000      0.002604
  0.000000  0.125416  0.000000      0.002604
[...]
 -0.012899  0.022342  0.000000      0.002604
 -0.011978  0.020746  0.000000      0.002604
 -0.011057  0.019150  0.000000      0.002604
 -0.010135  0.017555  0.000000      0.002604
 -0.009214  0.015959  0.000000      0.002604
 -0.008292  0.014363  0.000000      0.002604
 -0.007371  0.012767  0.000000      0.002604
 -0.006450  0.011171  0.000000      0.002604
 -0.005528  0.009575  0.000000      0.002604
 -0.004607  0.007979  0.000000      0.002604
 -0.003686  0.006383  0.000000      0.002604
 -0.002764  0.004788  0.000000      0.002604
 -0.001843  0.003192  0.000000      0.002604
 -0.000921  0.001596  0.000000      0.002604
 -0.000000  0.000000  0.000000      0.002604

 SYSTEM =  BS
 POSCAR =  Graphene with lattice parameter 2.467

 Startparameter for this run:
   NWRITE =      2    write-flag & timer
   PREC   = accura    normal or accurate (medium, high low for compatibility)
   ISTART =      0    job   : 0-new  1-cont  2-samecut
   ICHARG =     11    charge: 1-file 2-atom 10-const
   ISPIN  =      1    spin polarized calculation?
   LNONCOLLINEAR =      F non collinear calculations
   LSORBIT =      F    spin-orbit coupling
   INIWAV =      1    electr: 0-lowe 1-rand  2-diag
   LASPH  =      F    aspherical Exc in radial PAW
 Electronic Relaxation 1
   ENCUT  =  450.0 eV  33.07 Ry    5.75 a.u.   4.27  4.27 25.95*2*pi/ulx,y,z
   ENINI  =  450.0     initial cutoff
   ENAUG  =  644.9 eV  augmentation charge cutoff
   NELM   =     64;   NELMIN=  2; NELMDL= -5     # of ELM steps
   EDIFF  = 0.1E-05   stopping-criterion for ELM
   LREAL  =      F    real-space projection
   NLSPLINE    = F    spline interpolate recip. space projectors
   LCOMPAT=      F    compatible to vasp.4.4
   GGA_COMPAT  = T    GGA compatible to vasp.4.4-vasp.4.6
   LMAXPAW     = -100 max onsite density
   LMAXMIX     =    2 max onsite mixed and CHGCAR
   VOSKOWN=      0    Vosko Wilk Nusair interpolation
   ROPT   =    0.00000
 Ionic relaxation
   EDIFFG = -.1E-02   stopping-criterion for IOM
   NSW    =      0    number of steps for IOM
   NBLOCK =      1;   KBLOCK =      1    inner block; outer block
   IBRION =     -1    ionic relax: 0-MD 1-quasi-New 2-CG
   NFREE  =      0    steps in history (QN), initial steepest desc. (CG)
   ISIF   =      2    stress and relaxation
[...]
   0.13372441  0.13372441  0.00000000       0.003
   0.13634646  0.13634646  0.00000000       0.003
   0.13896850  0.13896850  0.00000000       0.003
   0.14159055  0.14159055  0.00000000       0.003
   0.14421260  0.14421260  0.00000000       0.003
   0.14683465  0.14683465  0.00000000       0.003
   0.14945669  0.14945669  0.00000000       0.003
   0.15207874  0.15207874  0.00000000       0.003
   0.15470079  0.15470079  0.00000000       0.003
[...]
   0.00000000  0.05511811  0.00000000       0.003
   0.00000000  0.05118110  0.00000000       0.003
   0.00000000  0.04724409  0.00000000       0.003
   0.00000000  0.04330709  0.00000000       0.003
   0.00000000  0.03937008  0.00000000       0.003
   0.00000000  0.03543307  0.00000000       0.003
   0.00000000  0.03149606  0.00000000       0.003
   0.00000000  0.02755906  0.00000000       0.003
   0.00000000  0.02362205  0.00000000       0.003
   0.00000000  0.01968504  0.00000000       0.003
   0.00000000  0.01574803  0.00000000       0.003
   0.00000000  0.01181102  0.00000000       0.003
   0.00000000  0.00787402  0.00000000       0.003
   0.00000000  0.00393701  0.00000000       0.003
   0.00000000  0.00000000  0.00000000       0.003

 position of ions in fractional coordinates (direct lattice)
   0.33333300  0.66666600  0.10000000
   0.66666600  0.33333300  0.10000000

 position of ions in cartesian coordinates  (Angst):
  -0.71216079  1.23349877  1.50000000
   0.71216079  1.23349877  1.50000000

 k-point   1 :   0.0000 0.0000 0.0000  plane waves:    1749
 k-point   2 :   0.0026 0.0026 0.0000  plane waves:    1743
 k-point   3 :   0.0052 0.0052 0.0000  plane waves:    1743
 k-point   4 :   0.0079 0.0079 0.0000  plane waves:    1751
 k-point   5 :   0.0105 0.0105 0.0000  plane waves:    1747
 k-point   6 :   0.0131 0.0131 0.0000  plane waves:    1745
 k-point   7 :   0.0157 0.0157 0.0000  plane waves:    1741
 k-point   8 :   0.0184 0.0184 0.0000  plane waves:    1737
 k-point   9 :   0.0210 0.0210 0.0000  plane waves:    1737
 k-point  10 :   0.0236 0.0236 0.0000  plane waves:    1737
 k-point  11 :   0.0262 0.0262 0.0000  plane waves:    1745
 k-point  12 :   0.0288 0.0288 0.0000  plane waves:    1745
 k-point  13 :   0.0315 0.0315 0.0000  plane waves:    1745
 k-point  14 :   0.0341 0.0341 0.0000  plane waves:    1745
 k-point  15 :   0.0367 0.0367 0.0000  plane waves:    1741
 k-point  16 :   0.0393 0.0393 0.0000  plane waves:    1741
 k-point  17 :   0.0420 0.0420 0.0000  plane waves:    1741
 k-point  18 :   0.0446 0.0446 0.0000  plane waves:    1741
 k-point  19 :   0.0472 0.0472 0.0000  plane waves:    1741
 k-point  20 :   0.0498 0.0498 0.0000  plane waves:    1733
 k-point  21 :   0.0524 0.0524 0.0000  plane waves:    1725
 k-point  22 :   0.0551 0.0551 0.0000  plane waves:    1725
 k-point  23 :   0.0577 0.0577 0.0000  plane waves:    1725
 k-point  24 :   0.0603 0.0603 0.0000  plane waves:    1721
 k-point  25 :   0.0629 0.0629 0.0000  plane waves:    1721
 k-point  26 :   0.0656 0.0656 0.0000  plane waves:    1725
 k-point  27 :   0.0682 0.0682 0.0000  plane waves:    1727
 k-point  28 :   0.0708 0.0708 0.0000  plane waves:    1723
 k-point  29 :   0.0734 0.0734 0.0000  plane waves:    1725
 k-point  30 :   0.0760 0.0760 0.0000  plane waves:    1719
 k-point  31 :   0.0787 0.0787 0.0000  plane waves:    1723
 k-point  32 :   0.0813 0.0813 0.0000  plane waves:    1723
 k-point  33 :   0.0839 0.0839 0.0000  plane waves:    1723
 k-point  34 :   0.0865 0.0865 0.0000  plane waves:    1723
 k-point  35 :   0.0891 0.0891 0.0000  plane waves:    1723
 k-point  36 :   0.0918 0.0918 0.0000  plane waves:    1723
 k-point  37 :   0.0944 0.0944 0.0000  plane waves:    1721
 k-point  38 :   0.0970 0.0970 0.0000  plane waves:    1721
 k-point  39 :   0.0996 0.0996 0.0000  plane waves:    1721
 k-point  40 :   0.1023 0.1023 0.0000  plane waves:    1717
 k-point  41 :   0.1049 0.1049 0.0000  plane waves:    1713
 k-point  42 :   0.1075 0.1075 0.0000  plane waves:    1713
 k-point  43 :   0.1101 0.1101 0.0000  plane waves:    1713
 k-point  44 :   0.1127 0.1127 0.0000  plane waves:    1709
 k-point  45 :   0.1154 0.1154 0.0000  plane waves:    1713
 k-point  46 :   0.1180 0.1180 0.0000  plane waves:    1717
 k-point  47 :   0.1206 0.1206 0.0000  plane waves:    1719
 k-point  48 :   0.1232 0.1232 0.0000  plane waves:    1719
 k-point  49 :   0.1259 0.1259 0.0000  plane waves:    1715
 k-point  50 :   0.1285 0.1285 0.0000  plane waves:    1713
 k-point  51 :   0.1311 0.1311 0.0000  plane waves:    1711
 k-point  52 :   0.1337 0.1337 0.0000  plane waves:    1708
 k-point  53 :   0.1363 0.1363 0.0000  plane waves:    1708
 k-point  54 :   0.1390 0.1390 0.0000  plane waves:    1704
 k-point  55 :   0.1416 0.1416 0.0000  plane waves:    1708
 k-point  56 :   0.1442 0.1442 0.0000  plane waves:    1708
 k-point  57 :   0.1468 0.1468 0.0000  plane waves:    1708
 k-point  58 :   0.1495 0.1495 0.0000  plane waves:    1708
 k-point  59 :   0.1521 0.1521 0.0000  plane waves:    1708
 k-point  60 :   0.1547 0.1547 0.0000  plane waves:    1706
[...]
 k-point 370 :   0.0000 0.0551 0.0000  plane waves:    1747
 k-point 371 :   0.0000 0.0512 0.0000  plane waves:    1747
 k-point 372 :   0.0000 0.0472 0.0000  plane waves:    1743
 k-point 373 :   0.0000 0.0433 0.0000  plane waves:    1747
 k-point 374 :   0.0000 0.0394 0.0000  plane waves:    1745
 k-point 375 :   0.0000 0.0354 0.0000  plane waves:    1741
 k-point 376 :   0.0000 0.0315 0.0000  plane waves:    1741
 k-point 377 :   0.0000 0.0276 0.0000  plane waves:    1749
 k-point 378 :   0.0000 0.0236 0.0000  plane waves:    1741
 k-point 379 :   0.0000 0.0197 0.0000  plane waves:    1749
 k-point 380 :   0.0000 0.0157 0.0000  plane waves:    1753
 k-point 381 :   0.0000 0.0118 0.0000  plane waves:    1751
 k-point 382 :   0.0000 0.0079 0.0000  plane waves:    1745
 k-point 383 :   0.0000 0.0039 0.0000  plane waves:    1745
 k-point 384 :   0.0000 0.0000 0.0000  plane waves:    1749

 maximum and minimum number of plane-waves per node :      1753     1687

 maximum number of plane-waves:      1753
 maximum index in each direction:
   IXMAX=    4   IYMAX=    4   IZMAX=   25
   IXMIN=   -4   IYMIN=   -4   IZMIN=  -25

 serial   3D FFT for wavefunctions
 parallel 3D FFT for charge:
    minimum data exchange during FFTs selected (reduces bandwidth)

 initial charge density was supplied:
 number of electron       7.9999998 magnetization
 keeping initial charge density in first step

 Maximum index for augmentation-charges            0 (set IRDMAX)

 First call to EWALD:  gamma=   0.413
 Maximum number of real-space cells 5x 5x 1
 Maximum number of reciprocal cells 2x 2x 8

--------------------------------------- Iteration      1(   1)  ---------------------------------------

 eigenvalue-minimisations  : 36864
 total energy-change (2. order) :-0.7275963E+01  (-0.3514049E+03)
 number of electron       7.9999998 magnetization
 augmentation part        7.9999998 magnetization

 Free energy of the ion-electron system (eV)
  alpha Z        PSCENC =         4.15613880
  Ewald energy   TEWEN  =       835.74592742
  -Hartree energ DENC   =     -1087.73706173
  -exchange      EXHF   =         0.00000000
  -V(xc)+E(xc)   XCENC  =        27.53614957
  PAW double counting   =       845.15937610     -846.52360985
  entropy T*S    EENTRO =        -0.00079005
  eigenvalues    EBANDS =       -79.90085054
  atomic energy  EATOM  =       294.28875697
  Solvation  Ediel_sol  =         0.00000000
  free energy    TOTEN  =        -7.27596332 eV

  energy without entropy =       -7.27517327  energy(sigma->0) =       -7.27556829

[...]

 eigenvalue-minimisations  : 71616
 total energy-change (2. order) :-0.9958961E-05  (-0.9959088E-05)
 number of electron       7.9999998 magnetization
 augmentation part        7.9999998 magnetization

[...]

 eigenvalue-minimisations  : 37056
 total energy-change (2. order) : 0.1546141E-10  (-0.4887007E-10)
 number of electron       7.9999998 magnetization
 augmentation part        7.9999998 magnetization

[...]

--------------------------------------- Iteration      1(   6)  ---------------------------------------

 eigenvalue-minimisations  : 71376
 total energy-change (2. order) :-0.5752554E-10  ( 0.1424484E-13)
 number of electron       7.9999998 magnetization
 augmentation part        7.9999998 magnetization

 Free energy of the ion-electron system (eV)
  alpha Z        PSCENC =         4.15613880
  Ewald energy   TEWEN  =       835.74592742
  -Hartree energ DENC   =     -1087.73706173
  -exchange      EXHF   =         0.00000000
  -V(xc)+E(xc)   XCENC  =        27.53614957
  PAW double counting   =       845.15937610     -846.52360985
  entropy T*S    EENTRO =        -0.00129440
  eigenvalues    EBANDS =       -90.00600410
  atomic energy  EATOM  =       294.28875697
  Solvation  Ediel_sol  =         0.00000000
  free energy    TOTEN  =       -17.38162123 eV

  energy without entropy =      -17.38032682  energy(sigma->0) =      -17.38097403

 average (electrostatic) potential at core
  the test charge radii are     0.6991
  (the norm of the test charge is              1.0000)
       1 -57.6941       2 -57.6941

 E-fermi :  -2.2532     XC(G=0):  -2.8665     alpha+bet : -2.5354

 Fermi energy:        -2.2532215355

 k-point     1 :       0.0000    0.0000    0.0000
  band No.  band energies     occupation
      1     -21.7572      2.00000
      2      -9.8607      2.00000
      3      -5.2827      2.00000
      4      -5.2826      2.00000
      5       1.0074      0.00000
      6       1.9090      0.00000
      7       2.4628      0.00000
      8       4.3249      0.00000
      9       5.1118      0.00000
     10       6.0629      0.00000
     11       6.0630      0.00000
     12       8.2417      0.00000
     13       9.1612      0.00000
     14       9.3492      0.00000
     15      10.2178      0.00000
     16      13.5598      0.00000
     17      15.0787      0.00000
     18      20.1263      0.00000
     19      20.2259      0.00000
     20      22.2208      0.00000
     21      25.9179      0.00000
     22      25.9179      0.00000
     23      27.1219      0.00000
     24      29.3324      0.00000
     25      29.3325      0.00000
     26      30.7182      0.00000
     27      31.4561      0.00000
     28      32.9456      0.00000
     29      32.9457      0.00000
     30      33.4518      0.00000
     31      33.4518      0.00000
     32      33.9398      0.00000
     33      34.1959      0.00000
     34      34.4790      0.00000
     35      35.1218      0.00000
     36      35.1219      0.00000
     37      35.2295      0.00000
     38      35.2295      0.00000
     39      35.2839      0.00000
     40      35.2839      0.00000
     41      35.2965      0.00000
     42      35.4070      0.00000
     43      35.4070      0.00000
     44      35.4170      0.00000
     45      35.6553      0.00000
     46      36.7250      0.00000
     47      37.3306      0.00000
     48      37.4711      0.00000

[...]

 k-point   384 :       0.0000    0.0000    0.0000
  band No.  band energies     occupation
      1     -21.7572      2.00000
      2      -9.8607      2.00000
      3      -5.2827      2.00000
      4      -5.2826      2.00000
      5       1.0074      0.00000
      6       1.9090      0.00000
      7       2.4628      0.00000
      8       4.3249      0.00000
      9       5.1118      0.00000
     10       6.0629      0.00000
     11       6.0630      0.00000
     12       8.2417      0.00000
     13       9.1612      0.00000
     14       9.3492      0.00000
     15      10.2178      0.00000
     16      13.5598      0.00000
     17      15.0787      0.00000
     18      20.1263      0.00000
     19      20.2259      0.00000
     20      22.2208      0.00000
     21      25.9179      0.00000
     22      25.9179      0.00000
     23      27.1219      0.00000
     24      29.3324      0.00000
     25      29.3325      0.00000
     26      30.7182      0.00000
     27      31.4561      0.00000
     28      32.9456      0.00000
     29      32.9457      0.00000
     30      33.4518      0.00000
     31      33.4518      0.00000
     32      33.9398      0.00000
     33      34.1959      0.00000
     34      34.4790      0.00000
     35      35.1218      0.00000
     36      35.1219      0.00000
     37      35.2295      0.00000
     38      35.2295      0.00000
     39      35.2839      0.00000
     40      35.2839      0.00000
     41      35.2965      0.00000
     42      35.4070      0.00000
     43      35.4070      0.00000
     44      35.4170      0.00000
     45      35.6553      0.00000
     46      36.7250      0.00000
     47      37.3306      0.00000
     48      37.4711      0.00000

 soft charge-density along one line, spin component           1
         0         1         2         3         4         5         6         7         8         9
 total charge-density along one line

------------------------ aborting loop because EDIFF is reached ----------------------------------------

 total charge

# of ion       s       p       d       tot
    1        0.853   1.810   0.000   2.664
    2        0.853   1.810   0.000   2.664
tot          1.707   3.620   0.000   5.327

         DFTD3 V3.0 Rev 1
 IVDW         = 12
 DF pbe
 parameters
 VDW_S6       =    1.0000
 VDW_S8       =    0.7875
 VDW_A1       =    0.4289
 VDW_A2       =    4.4407
 k1-k3        =   16.0000    1.3333   -4.0000
 VDW_RADIUS   =   50.2022 A
 VDW_CNRADIUS =   21.1671 A
 Edisp (eV)   -0.17742

 E6    (eV) :    -0.1220
 E8    (eV) :    -0.0554
 % E8        : 31.25

  FORCE on cell =-STRESS in cart. coord.  units (eV):
  Direction    XX          YY          ZZ          XY          YZ          ZX
  Alpha Z     4.15614     4.15614     4.15614
  Ewald    1104.50998  1104.50935 -1373.27344     0.00000    -0.00000    -0.00000
  Hartree  1078.51939  1077.00116 -1065.91237     0.93740     0.00000     0.00000
  E(xc)     -29.71287   -29.68908   -30.81384    -0.01534    -0.00000    -0.00000
  Local   -2273.21306 -2264.30846  2336.41269    -5.49852    -0.00000    -0.00000
  n-local    -7.85845    -8.19161    -7.38367    -0.03194    -0.00000     0.00000
  augment    -0.80727    -0.83002    -0.75314     0.01573    -0.00000    -0.00000
  Kinetic   119.67999   125.11476   138.37730    -1.67921     0.00000     0.00000
  Fock        0.00000     0.00000     0.00000     0.00000     0.00000     0.00000
  vdW        -0.04475    -0.04475    -0.00146    -0.00000     0.00000    -0.00000
  Total      -4.77090     7.71748     0.80820    -6.27188    -0.00000    -0.00000
  in kB     -96.68310   156.39618    16.37840  -127.10069    -0.00000    -0.00000

 VOLUME and BASIS-vectors are now :
  energy-cutoff  :      450.00
  volume of cell :       79.06
      direct lattice vectors                 reciprocal lattice vectors
     2.136484500  1.233500000  0.000000000     0.234029313  0.405350628  0.000000000
    -2.136484500  1.233500000  0.000000000    -0.234029313  0.405350628  0.000000000
     0.000000000  0.000000000 15.000000000     0.000000000  0.000000000  0.066666667

  length of vectors
     2.466999852  2.466999852 15.000000000     0.468058598  0.468058598  0.066666667

 FORCES acting on ions
    electron-ion (+dipol)            ewald-force                    non-local-force                 convergence-correction
   0.395E+01 -.478E+01 0.133E-05   -.271E-03 0.289E-14 0.939E-15   0.277E+01 -.352E+01 -.176E-04   -.117E+01 0.143E+01 -.593E-06
   -.395E+01 0.478E+01 0.145E-05   0.271E-03 0.665E-15 -.162E-21   -.277E+01 0.352E+01 -.176E-04   0.117E+01 -.143E+01 -.593E-06
   0.316E-08 -.552E-07 0.278E-05   -.890E-15 0.355E-14 0.939E-15   -.269E-08 -.224E-07 -.352E-04   0.160E-09 -.562E-09 -.119E-05

 POSITION                                       TOTAL-FORCE (eV/Angst)
     -0.71216      1.23350      1.50000         5.551118     -6.876616     -0.000000
      0.71216      1.23350      1.50000        -5.551118      6.876616      0.000000
    total drift:                                0.000000     -0.000000     -0.000034

  FREE ENERGIE OF THE ION-ELECTRON SYSTEM (eV)
  free  energy   TOTEN  =       -17.55903973 eV

  energy  without entropy=      -17.55774533  energy(sigma->0) =      -17.55839253

 stress matrix after NEB project (eV)
     -4.77090     -6.27188     -0.00000
     -6.27188      7.71748     -0.00000
     -0.00000     -0.00000      0.80820
  FORCES: max atom, RMS     8.837577    8.837577
  FORCE total and by dimension   12.498221    6.876616
  Stress total and by dimension   12.714051    7.717484
 writing wavefunctions

 total charge

# of ion       s       p       d       tot
    1        0.853   1.810   0.000   2.664
    2        0.853   1.810   0.000   2.664
tot          1.707   3.620   0.000   5.327