 vasp.6.3.2 27Jun22 (build Dec 22 2022 13:13:19) complex

 executed on             LinuxIFC date 2023.11.03  13:48:32

 INCAR:
   SYSTEM = SC
   ISTART = 0
   ICHARG = 2
   PREC = Accurate
   ENCUT = 450
   LCHARG = .TRUE.
   LWAVE = .TRUE.
   ALGO = Normal
   NELM = 64
   EDIFF = 1E-6
   EDIFFG = -1E-3
   SIGMA = 0.1
   ISMEAR = 0
   SYMPREC = 1E-6
   IBRION = -1
   GGA = PE
   IVDW = 12

 POTCAR:    PAW_PBE B 06Sep2000
 POTCAR:    PAW_PBE B 06Sep2000
   VRHFIN =B: s2p1

   TITEL  = PAW_PBE B 06Sep2000
   POMASS =   10.811; ZVAL   =    3.000    mass and valenz
   ENMAX  =  318.614; ENMIN  =  238.960 eV

  PAW_PBE B 06Sep2000                   :

 POSCAR: Borophene with lattice parameter 5.051
  positions in direct lattice
  velocities in cartesian coordinates
 exchange correlation table for  LEXCH =        8
   RHO(1)=    0.500       N(1)  =     2000
   RHO(2)=  100.500       N(2)  =     4000

 VTST: version 4.2, (08/11/21)

 CHAIN: initializing optimizer

 OPT: Using VASP Dynamics algorithm
 CHAIN: Read ICHAIN            0

 POSCAR: Borophene with lattice parameter 5.051
  positions in direct lattice
  velocities in cartesian coordinates

 ion  position               nearest neighbor table
   1  0.669  0.000  0.100-   3 1.67   6 1.67   7 1.69   8 1.69   2 1.71
   2  0.331  0.000  0.100-   5 1.67   4 1.67   7 1.69   8 1.69   1 1.71
   3  0.000  0.331  0.100-   5 1.67   1 1.67   8 1.69   7 1.69   4 1.71
   4  0.000  0.669  0.100-   2 1.67   6 1.67   8 1.69   7 1.69   3 1.71
   5  0.331  0.331  0.100-   2 1.67   3 1.67   7 1.69   8 1.69   6 1.71
   6  0.669  0.669  0.100-   1 1.67   4 1.67   7 1.69   8 1.69   5 1.71
   7  0.667  0.333  0.100-   1 1.69   5 1.69   6 1.69   2 1.69   4 1.69   3 1.69
   8  0.333  0.667  0.100-   4 1.69   5 1.69   6 1.69   3 1.69   1 1.69   2 1.69

  LATTYP: Found a hexagonal cell.
 ALAT       =     5.0509997276
 C/A-ratio  =     2.9697091287

  Lattice vectors:

 A1 = (   4.3742940000,   2.5255000000,   0.0000000000)
 A2 = (  -4.3742940000,   2.5255000000,   0.0000000000)
 A3 = (   0.0000000000,   0.0000000000,  15.0000000000)

Analysis of symmetry for initial positions (statically):
 Subroutine PRICEL returns:
 Original cell was already a primitive cell.

 Routine SETGRP: Setting up the symmetry group for a
 hexagonal supercell.

 Subroutine GETGRP returns: Found  4 space group operations
 (whereof  1 operations were pure point group operations)
 out of a pool of 24 trial point group operations.

The static configuration has the point symmetry C_1 .
 The point group associated with its full space group is C_2h.

Analysis of symmetry for dynamics (positions and initial velocities):
 Subroutine PRICEL returns:
 Original cell was already a primitive cell.

 Routine SETGRP: Setting up the symmetry group for a
 hexagonal supercell.

 Subroutine GETGRP returns: Found  4 space group operations
 (whereof  1 operations were pure point group operations)
 out of a pool of 24 trial point group operations.

The dynamic configuration has the point symmetry C_1 .
 The point group associated with its full space group is C_2h.

 Subroutine INISYM returns: Found  4 space group operations
 (whereof  1 operations are pure point group operations),
 and found     1 'primitive' translations

                                     Primitive cell

  volume of cell :     331.4184

  direct lattice vectors                    reciprocal lattice vectors
     4.374294000  2.525500000  0.000000000     0.114304160  0.197980598  0.000000000
    -4.374294000  2.525500000  0.000000000    -0.114304160  0.197980598  0.000000000
     0.000000000  0.000000000 15.000000000     0.000000000  0.000000000  0.066666667

  length of vectors
     5.050999728  5.050999728 15.000000000     0.228608307  0.228608307  0.066666667

  position of ions in fractional coordinates (direct lattice)
     0.668931733  1.000000000  0.100000000
     0.331067267  1.000000000  0.100000000
     1.000000000  0.331067267  0.100000000
     1.000000000  0.668931733  0.100000000
     0.331067267  0.331067267  0.100000000
     0.668931733  0.668931733  0.100000000
     0.666666000  0.333333000  0.099956110
     0.333333000  0.666666000  0.100043890

  ion indices of the primitive-cell ions
   primitive index   ion index
                 1           1
                 2           2
                 3           3
                 4           4
                 5           5
                 6           6
                 7           7
                 8           8

 KPOINTS: k-points

Automatic generation of k-mesh.
 Grid dimensions read from file:
 generate k-points for:   17   17    1

 Generating k-lattice:

  Cartesian coordinates                     Fractional coordinates (reciprocal lattice)
     0.006723774  0.011645918  0.000000000     0.058823529 -0.000000000  0.000000000
    -0.006723774  0.011645918  0.000000000    -0.000000000  0.058823529  0.000000000
     0.000000000  0.000000000  0.066666667     0.000000000  0.000000000  1.000000000

  Length of vectors
     0.013447547  0.013447547  0.066666667

  Shift w.r.t. Gamma in fractional coordinates (k-lattice)
     0.000000000  0.000000000  0.000000000

 Subroutine IBZKPT returns following result:

 Found     81 irreducible k-points:

 Following reciprocal coordinates:
            Coordinates               Weight
  0.000000  0.000000  0.000000      1.000000
  0.058824  0.000000  0.000000      4.000000
 -0.058824  0.058824  0.000000      2.000000
  0.117647  0.000000  0.000000      4.000000
 -0.117647  0.117647  0.000000      2.000000
  0.176471  0.000000  0.000000      4.000000
 -0.176471  0.176471  0.000000      2.000000
  0.235294  0.000000  0.000000      4.000000
 -0.235294  0.235294  0.000000      2.000000
  0.294118  0.000000  0.000000      4.000000
 -0.294118  0.294118  0.000000      2.000000
  0.352941  0.000000  0.000000      4.000000
 -0.352941  0.352941  0.000000      2.000000
  0.411765  0.000000  0.000000      4.000000
 -0.411765  0.411765  0.000000      2.000000
  0.470588  0.000000  0.000000      4.000000
 -0.470588  0.470588  0.000000      2.000000
  0.058824  0.058824  0.000000      2.000000
 -0.058824  0.117647  0.000000      4.000000
  0.117647  0.058824  0.000000      4.000000
 -0.058824  0.176471  0.000000      4.000000
 -0.176471  0.117647  0.000000      4.000000
  0.176471  0.058824  0.000000      4.000000
 -0.058824  0.235294  0.000000      4.000000
 -0.235294  0.176471  0.000000      4.000000
  0.235294  0.058824  0.000000      4.000000
 -0.058824  0.294118  0.000000      4.000000
 -0.294118  0.235294  0.000000      4.000000
  0.294118  0.058824  0.000000      4.000000
 -0.058824  0.352941  0.000000      4.000000
 -0.352941  0.294118  0.000000      4.000000
  0.352941  0.058824  0.000000      4.000000
 -0.058824  0.411765  0.000000      4.000000
 -0.411765  0.352941  0.000000      4.000000
  0.411765  0.058824  0.000000      4.000000
 -0.058824  0.470588  0.000000      4.000000
 -0.470588  0.411765  0.000000      4.000000
  0.470588  0.058824  0.000000      4.000000
  0.470588  0.470588  0.000000      2.000000
  0.117647  0.117647  0.000000      2.000000
 -0.117647  0.235294  0.000000      4.000000
  0.176471  0.117647  0.000000      4.000000
 -0.117647  0.294118  0.000000      4.000000
 -0.294118  0.176471  0.000000      4.000000
  0.235294  0.117647  0.000000      4.000000
 -0.117647  0.352941  0.000000      4.000000
 -0.352941  0.235294  0.000000      4.000000
  0.294118  0.117647  0.000000      4.000000
 -0.117647  0.411765  0.000000      4.000000
 -0.411765  0.294118  0.000000      4.000000
  0.352941  0.117647  0.000000      4.000000
 -0.117647  0.470588  0.000000      4.000000
 -0.470588  0.352941  0.000000      4.000000
  0.411765  0.117647  0.000000      4.000000
 -0.117647 -0.470588  0.000000      4.000000
  0.470588  0.411765  0.000000      4.000000
  0.176471  0.176471  0.000000      2.000000
 -0.176471  0.352941  0.000000      4.000000
  0.235294  0.176471  0.000000      4.000000
 -0.176471  0.411765  0.000000      4.000000
[...]
  0.470588  0.352941  0.000000      4.000000
  0.411765  0.176471  0.000000      4.000000
  0.411765  0.411765  0.000000      2.000000
  0.235294  0.235294  0.000000      2.000000
 -0.235294  0.470588  0.000000      4.000000
  0.294118  0.235294  0.000000      4.000000
 -0.235294 -0.470588  0.000000      4.000000
  0.470588  0.294118  0.000000      4.000000
  0.352941  0.235294  0.000000      4.000000
 -0.235294 -0.411765  0.000000      4.000000
  0.411765  0.352941  0.000000      4.000000
  0.294118  0.294118  0.000000      2.000000
 -0.294118 -0.411765  0.000000      4.000000
  0.352941  0.294118  0.000000      4.000000
  0.352941  0.352941  0.000000      2.000000

 Following cartesian coordinates:
            Coordinates               Weight
  0.000000  0.000000  0.000000      1.000000
  0.006724  0.011646  0.000000      4.000000
 -0.013448  0.000000  0.000000      2.000000
  0.013448  0.023292  0.000000      4.000000
 -0.026895  0.000000  0.000000      2.000000
  0.020171  0.034938  0.000000      4.000000
 -0.040343  0.000000  0.000000      2.000000
  0.026895  0.046584  0.000000      4.000000
 -0.053790  0.000000  0.000000      2.000000
  0.033619  0.058230  0.000000      4.000000
 -0.067238  0.000000  0.000000      2.000000
  0.040343  0.069876  0.000000      4.000000
 -0.080685 -0.000000  0.000000      2.000000
  0.047066  0.081521  0.000000      4.000000
 -0.094133  0.000000  0.000000      2.000000
  0.053790  0.093167  0.000000      4.000000
 -0.107580  0.000000  0.000000      2.000000
 -0.000000  0.023292  0.000000      2.000000
 -0.020171  0.011646  0.000000      4.000000
  0.006724  0.034938  0.000000      4.000000
 -0.026895  0.023292  0.000000      4.000000
 -0.033619 -0.011646  0.000000      4.000000
  0.013448  0.046584  0.000000      4.000000
 -0.033619  0.034938  0.000000      4.000000
 -0.047066 -0.011646  0.000000      4.000000
  0.020171  0.058230  0.000000      4.000000
 -0.040343  0.046584  0.000000      4.000000
 -0.060514 -0.011646  0.000000      4.000000
  0.026895  0.069876  0.000000      4.000000
 -0.047066  0.058230  0.000000      4.000000
 -0.073962 -0.011646  0.000000      4.000000
  0.033619  0.081521  0.000000      4.000000
 -0.053790  0.069876  0.000000      4.000000
 -0.087409 -0.011646  0.000000      4.000000
  0.040343  0.093167  0.000000      4.000000
 -0.060514  0.081521  0.000000      4.000000
 -0.100857 -0.011646  0.000000      4.000000
  0.047066  0.104813  0.000000      4.000000
 -0.000000  0.186335  0.000000      2.000000
 -0.000000  0.046584  0.000000      2.000000
 -0.040343  0.023292  0.000000      4.000000
  0.006724  0.058230  0.000000      4.000000
 -0.047066  0.034938  0.000000      4.000000
 -0.053790 -0.023292  0.000000      4.000000
  0.013448  0.069876  0.000000      4.000000
 -0.053790  0.046584  0.000000      4.000000
 -0.067238 -0.023292  0.000000      4.000000
  0.020171  0.081521  0.000000      4.000000
 -0.060514  0.058230  0.000000      4.000000
 -0.080685 -0.023292  0.000000      4.000000
  0.026895  0.093167  0.000000      4.000000
 -0.067238  0.069876  0.000000      4.000000
 -0.094133 -0.023292  0.000000      4.000000
[...]
 k-point   7 :  -0.1765 0.1765 0.0000  plane waves:    7193
 k-point   8 :   0.2353 0.0000 0.0000  plane waves:    7197
 k-point   9 :  -0.2353 0.2353 0.0000  plane waves:    7197
 k-point  10 :   0.2941 0.0000 0.0000  plane waves:    7185
 k-point  11 :  -0.2941 0.2941 0.0000  plane waves:    7185
 k-point  12 :   0.3529 0.0000 0.0000  plane waves:    7187
 k-point  13 :  -0.3529 0.3529 0.0000  plane waves:    7187
 k-point  14 :   0.4118 0.0000 0.0000  plane waves:    7195
 k-point  15 :  -0.4118 0.4118 0.0000  plane waves:    7195
 k-point  16 :   0.4706 0.0000 0.0000  plane waves:    7208
 k-point  17 :  -0.4706 0.4706 0.0000  plane waves:    7208
 k-point  18 :   0.0588 0.0588 0.0000  plane waves:    7185
 k-point  19 :  -0.0588 0.1176 0.0000  plane waves:    7185
 k-point  20 :   0.1176 0.0588 0.0000  plane waves:    7192
 k-point  21 :  -0.0588 0.1765 0.0000  plane waves:    7192
 k-point  22 :  -0.1765 0.1176 0.0000  plane waves:    7192
 k-point  23 :   0.1765 0.0588 0.0000  plane waves:    7193
 k-point  24 :  -0.0588 0.2353 0.0000  plane waves:    7193
 k-point  25 :  -0.2353 0.1765 0.0000  plane waves:    7193
 k-point  26 :   0.2353 0.0588 0.0000  plane waves:    7191
 k-point  27 :  -0.0588 0.2941 0.0000  plane waves:    7191
 k-point  28 :  -0.2941 0.2353 0.0000  plane waves:    7191
 k-point  29 :   0.2941 0.0588 0.0000  plane waves:    7184
 k-point  30 :  -0.0588 0.3529 0.0000  plane waves:    7184
 k-point  31 :  -0.3529 0.2941 0.0000  plane waves:    7184
 k-point  32 :   0.3529 0.0588 0.0000  plane waves:    7170
 k-point  33 :  -0.0588 0.4118 0.0000  plane waves:    7170
 k-point  34 :  -0.4118 0.3529 0.0000  plane waves:    7170
 k-point  35 :   0.4118 0.0588 0.0000  plane waves:    7190
 k-point  36 :  -0.0588 0.4706 0.0000  plane waves:    7190
 k-point  37 :  -0.4706 0.4118 0.0000  plane waves:    7190
 k-point  38 :   0.4706 0.0588 0.0000  plane waves:    7194
 k-point  39 :   0.4706 0.4706 0.0000  plane waves:    7194
 k-point  40 :   0.1176 0.1176 0.0000  plane waves:    7181
 k-point  41 :  -0.1176 0.2353 0.0000  plane waves:    7181
 k-point  42 :   0.1765 0.1176 0.0000  plane waves:    7190
 k-point  43 :  -0.1176 0.2941 0.0000  plane waves:    7190
 k-point  44 :  -0.2941 0.1765 0.0000  plane waves:    7190
 k-point  45 :   0.2353 0.1176 0.0000  plane waves:    7187
 k-point  46 :  -0.1176 0.3529 0.0000  plane waves:    7187
 k-point  47 :  -0.3529 0.2353 0.0000  plane waves:    7187
 k-point  48 :   0.2941 0.1176 0.0000  plane waves:    7183
 k-point  49 :  -0.1176 0.4118 0.0000  plane waves:    7183
 k-point  50 :  -0.4118 0.2941 0.0000  plane waves:    7183
 k-point  51 :   0.3529 0.1176 0.0000  plane waves:    7186
 k-point  52 :  -0.1176 0.4706 0.0000  plane waves:    7186
 k-point  53 :  -0.4706 0.3529 0.0000  plane waves:    7186
 k-point  54 :   0.4118 0.1176 0.0000  plane waves:    7200
 k-point  55 :  -0.1176-0.4706 0.0000  plane waves:    7200
 k-point  56 :   0.4706 0.4118 0.0000  plane waves:    7200
 k-point  57 :   0.1765 0.1765 0.0000  plane waves:    7183
 k-point  58 :  -0.1765 0.3529 0.0000  plane waves:    7183
 k-point  59 :   0.2353 0.1765 0.0000  plane waves:    7169
 k-point  60 :  -0.1765 0.4118 0.0000  plane waves:    7169
[...]
 k-point  67 :   0.4706 0.3529 0.0000  plane waves:    7183
 k-point  68 :   0.4118 0.1765 0.0000  plane waves:    7176
 k-point  69 :   0.4118 0.4118 0.0000  plane waves:    7176
 k-point  70 :   0.2353 0.2353 0.0000  plane waves:    7181
 k-point  71 :  -0.2353 0.4706 0.0000  plane waves:    7181
 k-point  72 :   0.2941 0.2353 0.0000  plane waves:    7169
 k-point  73 :  -0.2353-0.4706 0.0000  plane waves:    7169
 k-point  74 :   0.4706 0.2941 0.0000  plane waves:    7169
 k-point  75 :   0.3529 0.2353 0.0000  plane waves:    7158
 k-point  76 :  -0.2353-0.4118 0.0000  plane waves:    7158
 k-point  77 :   0.4118 0.3529 0.0000  plane waves:    7158
 k-point  78 :   0.2941 0.2941 0.0000  plane waves:    7151
 k-point  79 :  -0.2941-0.4118 0.0000  plane waves:    7151
 k-point  80 :   0.3529 0.2941 0.0000  plane waves:    7161
 k-point  81 :   0.3529 0.3529 0.0000  plane waves:    7161

 maximum and minimum number of plane-waves per node :      7208     7149

 maximum number of plane-waves:      7208
 maximum index in each direction:
   IXMAX=    9   IYMAX=    9   IZMAX=   25
   IXMIN=   -9   IYMIN=   -9   IZMIN=  -25

 serial   3D FFT for wavefunctions
 parallel 3D FFT for charge:
    minimum data exchange during FFTs selected (reduces bandwidth)

 Broyden mixing: mesh for mixing (old mesh)
   NGX = 17   NGY = 17   NGZ = 51
  (NGX  = 72   NGY  = 72   NGZ  =216)
  gives a total of  14739 points

 initial charge density was supplied:
 charge density of overlapping atoms calculated
 number of electron      24.0000000 magnetization
 keeping initial charge density in first step

 Maximum index for augmentation-charges          379 (set IRDMAX)

 First call to EWALD:  gamma=   0.256
 Maximum number of real-space cells 4x 4x 2
 Maximum number of reciprocal cells 2x 2x 5

--------------------------------------- Iteration      1(   1)  ---------------------------------------

 eigenvalue-minimisations  :  7776
 total energy-change (2. order) : 0.3519233E+02  (-0.9633194E+03)
 number of electron      24.0000000 magnetization
 augmentation part       24.0000000 magnetization

 Free energy of the ion-electron system (eV)
  alpha Z        PSCENC =        13.28497877
  Ewald energy   TEWEN  =      1756.86243280
  -Hartree energ DENC   =     -2116.54577085
  -exchange      EXHF   =         0.00000000
  -V(xc)+E(xc)   XCENC  =        55.32216351
  PAW double counting   =       347.99892404     -341.15636447
  entropy T*S    EENTRO =        -0.00582221
  eigenvalues    EBANDS =      -249.91873009
  atomic energy  EATOM  =       569.35051449
  Solvation  Ediel_sol  =         0.00000000
  free energy    TOTEN  =        35.19232599 eV

  energy without entropy =       35.19814820  energy(sigma->0) =       35.19523709

[...]

 eigenvalue-minimisations  : 12048
 total energy-change (2. order) :-0.8962779E+02  (-0.8927594E+02)
 number of electron      24.0000000 magnetization
 augmentation part       24.0000000 magnetization

[...]

 Broyden mixing:
  rms(total) = 0.93835E+00    rms(broyden)= 0.93825E+00
  rms(prec ) = 0.11109E+01
  weight for this iteration     100.00

[...]

 eigenvalues of (default mixing * dielectric matrix)
  average eigenvalue GAMMA=   2.2402
  2.2402

[...]

 eigenvalue-minimisations  : 10944
 total energy-change (2. order) : 0.1611114E-02  (-0.3967056E-03)
 number of electron      24.0000000 magnetization
 augmentation part       -0.0340157 magnetization

[...]

 Broyden mixing:
  rms(total) = 0.31504E-05    rms(broyden)= 0.31485E-05
  rms(prec ) = 0.39338E-05
  weight for this iteration     100.00

 eigenvalues of (default mixing * dielectric matrix)
  average eigenvalue GAMMA=   2.7413
  9.4574  5.8799  3.7940  3.1447  2.6731  2.5003  2.0972  1.9613  1.6965  1.1972
  0.9936  0.9936  1.0151  0.9741

[...]

--------------------------------------- Iteration      1(  20)  ---------------------------------------

 eigenvalue-minimisations  :  9120
 total energy-change (2. order) :-0.1415435E-06  (-0.2869536E-09)
 number of electron      24.0000000 magnetization
 augmentation part       -0.0341584 magnetization

 Free energy of the ion-electron system (eV)
  alpha Z        PSCENC =        13.28497877
  Ewald energy   TEWEN  =      1756.86243280
  -Hartree energ DENC   =     -2217.79743216
  -exchange      EXHF   =         0.00000000
  -V(xc)+E(xc)   XCENC  =        58.09400119
  PAW double counting   =      2366.07779435    -2359.97092086
  entropy T*S    EENTRO =        -0.00505387
  eigenvalues    EBANDS =      -236.36544755
  atomic energy  EATOM  =       569.35051449
  Solvation  Ediel_sol  =         0.00000000
  free energy    TOTEN  =       -50.46913284 eV

  energy without entropy =      -50.46407897  energy(sigma->0) =      -50.46660591

 average (electrostatic) potential at core
  the test charge radii are     0.7672
  (the norm of the test charge is              1.0000)
       1 -35.5004       2 -35.5005       3 -35.5005       4 -35.5004       5 -35.5006
       6 -35.5004       7 -36.7168       8 -36.7168

 E-fermi :  -2.2216     XC(G=0):  -2.9206     alpha+bet : -2.6791

 Fermi energy:        -2.2216414518

 k-point     1 :       0.0000    0.0000    0.0000
  band No.  band energies     occupation
      1     -17.8889      2.00000
      2     -13.7322      2.00000
      3     -13.6484      2.00000
      4     -13.6484      2.00000
      5     -11.4839      2.00000
      6     -11.4839      2.00000
      7      -9.4134      2.00000
      8      -8.7302      2.00000
      9      -3.8273      2.00000
     10      -3.8273      2.00000
     11      -2.2976      1.71719
     12      -1.7301      0.00000
     13      -1.7301      0.00000
     14      -1.5132      0.00000
     15      -1.5132      0.00000
     16      -1.2557      0.00000
     17      -1.2557      0.00000
     18       0.7817      0.00000
     19       1.6282      0.00000
     20       2.3777      0.00000
     21       2.5174      0.00000
     22       4.3971      0.00000
     23       4.9485      0.00000
     24       5.6969      0.00000
     25       6.3539      0.00000
     26       6.3539      0.00000
     27       6.5930      0.00000
     28       7.5209      0.00000
     29       7.5209      0.00000
     30       8.0519      0.00000
     31       8.3529      0.00000
     32       8.6080      0.00000
     33       9.0124      0.00000
     34       9.1042      0.00000
     35       9.3170      0.00000
     36       9.3629      0.00000
     37       9.3629      0.00000
     38       9.3861      0.00000
     39       9.4354      0.00000
     40       9.4356      0.00000
     41       9.5009      0.00000
     42       9.5349      0.00000
     43       9.5350      0.00000
     44       9.5711      0.00000
     45       9.5711      0.00000
     46      10.3397      0.00000
     47      10.3460      0.00000
     48      10.4150      0.00000

[...]

 k-point    81 :       0.3529    0.3529    0.0000
  band No.  band energies     occupation
      1     -16.7351      2.00000
      2     -16.5532      2.00000
      3     -14.6274      2.00000
      4     -11.2822      2.00000
      5     -10.9857      2.00000
      6      -9.6752      2.00000
      7      -9.5783      2.00000
      8      -6.8972      2.00000
      9      -6.6282      2.00000
     10      -6.2193      2.00000
     11      -6.0922      2.00000
     12      -4.7835      2.00000
     13       0.4254      0.00000
     14       1.0306      0.00000
     15       1.1796      0.00000
     16       1.3321      0.00000
     17       2.0844      0.00000
     18       2.3292      0.00000
     19       3.0015      0.00000
     20       3.1709      0.00000
     21       3.6580      0.00000
     22       4.2064      0.00000
     23       4.2818      0.00000
     24       4.7095      0.00000
     25       4.7849      0.00000
     26       4.8467      0.00000
     27       5.1512      0.00000
     28       5.1517      0.00000
     29       5.2607      0.00000
     30       5.2710      0.00000
     31       6.7540      0.00000
     32       6.7844      0.00000
     33       7.0582      0.00000
     34       7.1702      0.00000
     35       7.2212      0.00000
     36       7.4108      0.00000
     37       7.7022      0.00000
     38       7.8074      0.00000
     39       9.3529      0.00000
     40       9.7361      0.00000
     41      10.1399      0.00000
     42      10.3255      0.00000
     43      10.7420      0.00000
     44      11.0310      0.00000
     45      11.3801      0.00000
     46      11.4111      0.00000
     47      11.5110      0.00000
     48      11.8252      0.00000

 soft charge-density along one line, spin component           1
         0         1         2         3         4         5         6         7         8         9
 total charge-density along one line

------------------------ aborting loop because EDIFF is reached ----------------------------------------

         DFTD3 V3.0 Rev 1
 IVDW         = 12
 DF pbe
 parameters
 VDW_S6       =    1.0000
 VDW_S8       =    0.7875
 VDW_A1       =    0.4289
 VDW_A2       =    4.4407
 k1-k3        =   16.0000    1.3333   -4.0000
 VDW_RADIUS   =   50.2022 A
 VDW_CNRADIUS =   21.1671 A
 Edisp (eV)   -0.66728

 E6    (eV) :    -0.4279
 E8    (eV) :    -0.2394
 % E8        : 35.88

  FORCE on cell =-STRESS in cart. coord.  units (eV):
  Direction    XX          YY          ZZ          XY          YZ          ZX
  Alpha Z    13.28498    13.28498    13.28498
  Ewald    2352.61982  2352.61965 -2948.37789    -0.00000     0.00000    -0.00000
  Hartree  2203.92013  2203.92004 -2190.04226     0.00000    -0.00000    -0.00000
  E(xc)     -76.71365   -76.71365   -79.23341    -0.00000    -0.00000    -0.00000
  Local   -4727.91306 -4727.91282  4910.63467     0.00000    -0.00000     0.00000
  n-local    -9.98647    -9.98646   -13.91543    -0.24229     0.00007     0.00000
  augment     0.24378     0.24378     0.30026    -0.00000    -0.00000    -0.00000
  Kinetic   245.26868   245.26864   307.33677     0.19787    -0.00026    -0.00000
  Fock        0.00000     0.00000     0.00000     0.00000     0.00000     0.00000
  vdW        -0.69871    -0.69871    -0.00665     0.00000     0.00000    -0.00000
  Total       0.02551     0.02545    -0.01898     0.00000     0.00000    -0.00000
  in kB       0.12332     0.12302    -0.09174     0.00000     0.00000    -0.00000

 VOLUME and BASIS-vectors are now :
  energy-cutoff  :      450.00
  volume of cell :      331.42
      direct lattice vectors                 reciprocal lattice vectors
     4.374294000  2.525500000  0.000000000     0.114304160  0.197980598  0.000000000
    -4.374294000  2.525500000  0.000000000    -0.114304160  0.197980598  0.000000000
     0.000000000  0.000000000 15.000000000     0.000000000  0.000000000  0.066666667

  length of vectors
     5.050999728  5.050999728 15.000000000     0.228608307  0.228608307  0.066666667

 FORCES acting on ions
    electron-ion (+dipol)            ewald-force                    non-local-force                 convergence-correction
   -.256E+02 -.148E+02 0.205E-06   0.283E+02 0.163E+02 0.764E-07   -.278E+01 -.161E+01 -.111E-08   0.623E-06 0.360E-06 0.624E-09
   0.256E+02 0.148E+02 0.176E-06   -.283E+02 -.163E+02 0.145E-06   0.278E+01 0.161E+01 0.111E-08   -.622E-06 -.361E-06 -.103E-08
   -.256E+02 0.148E+02 0.277E-05   0.283E+02 -.163E+02 -.145E-06   -.278E+01 0.161E+01 -.111E-08   0.622E-06 -.361E-06 0.622E-09
   0.256E+02 -.148E+02 0.267E-05   -.283E+02 0.163E+02 -.765E-07   0.278E+01 -.161E+01 0.111E-08   -.623E-06 0.361E-06 -.104E-08
   -.156E-04 0.295E+02 0.142E-05   0.142E-13 -.327E+02 -.627E-11   0.119E-15 0.321E+01 -.593E-20   0.124E-09 -.721E-06 -.206E-09
   -.157E-04 -.295E+02 0.137E-05   0.142E-13 0.327E+02 -.627E-11   0.657E-16 -.321E+01 -.339E-20   0.125E-09 0.722E-06 -.207E-09
   -.266E-03 0.863E-04 0.158E+00   0.211E-03 0.309E-03 -.163E+00   0.331E-04 0.107E-17 0.500E-02   0.183E-08 0.436E-09 -.160E-07
   0.131E-03 0.863E-04 -.158E+00   -.211E-03 0.309E-03 0.163E+00   -.331E-04 -.348E-18 -.500E-02   -.207E-08 0.436E-09 0.155E-07
   -.672E-03 0.674E-03 0.113E-04   -.373E-14 0.320E-15 0.666E-15   0.630E-15 0.727E-18 0.000E+00   -.228E-09 0.725E-09 -.166E-08

 POSITION                                       TOTAL-FORCE (eV/Angst)
      2.92610      1.68939      1.50000        -0.023315     -0.013455     -0.000000
      1.44819      0.83611      1.50000         0.023315      0.013455      0.000000
     -1.44819      0.83611      1.50000        -0.023315      0.013455     -0.000000
     -2.92610      1.68939      1.50000         0.023315     -0.013455      0.000000
      0.00000      1.67222      1.50000         0.000000      0.026901     -0.000000
     -0.00000      3.37877      1.50000        -0.000000     -0.026901      0.000000
      1.45810      2.52550      1.49934         0.000046     -0.000000      0.000028
     -1.45810      2.52550      1.50066        -0.000046     -0.000000     -0.000028
    total drift:                               -0.000672      0.000674      0.000011

  FREE ENERGIE OF THE ION-ELECTRON SYSTEM (eV)
  free  energy   TOTEN  =       -51.13641419 eV

  energy  without entropy=      -51.13136032  energy(sigma->0) =      -51.13388725

 stress matrix after NEB project (eV)
      0.02551      0.00000     -0.00000
      0.00000      0.02545      0.00000
     -0.00000      0.00000     -0.01898
  FORCES: max atom, RMS     0.026919    0.023308
  FORCE total and by dimension    0.065924    0.026901
  Stress total and by dimension    0.040722    0.025508
 writing wavefunctions