 vasp.6.3.2 27Jun22 (build May 31 2023 12:07:17) complex

 executed on             LinuxIFC date 2024.07.29  19:33:50

 INCAR:
   SYSTEM = Dielectric_function
   ISTART = 1
   ICHARG = 2
   PREC = Accurate
   ENCUT = 450
   ALGO = Damped
   EDIFF = 1E-6
   NEDOS = 4000
   ISMEAR = 0
   SIGMA = 0.01
   GGA = PE
   LHFCALC = .TRUE.
   AEXX = 0.25
   HFSCREEN = 0.2
   LOPTICS = .TRUE.
   CSHIFT = 0.1
   NBANDS = 128
   LREAL = .FALSE.

 POTCAR:    PAW_PBE B 06Sep2000
 POTCAR:    PAW_PBE C 08Apr2002
|           W    W    AA    RRRRR   N    N  II  N    N   GGGG   !!!           |
|           W    W   A  A   R    R  NN   N  II  NN   N  G    G  !!!           |
|           W    W  A    A  R    R  N N  N  II  N N  N  G       !!!           |
|           W WW W  AAAAAA  RRRRR   N  N N  II  N  N N  G  GGG   !            |
|           WW  WW  A    A  R   R   N   NN  II  N   NN  G    G                |
|           W    W  A    A  R    R  N    N  II  N    N   GGGG   !!!           |
|     For optimal performance we recommend to set                             |
|       NCORE = 2 up to number-of-cores-per-socket                            |
|     This setting can greatly improve the performance of VASP for DFT.       |
|     The default, NCORE=1 might be grossly inefficient on modern             |
|     multi-core architectures or massively parallel machines. Do your        |
|     Unfortunately you need to use the default for GW and RPA                |
|     calculations (for HF NCORE is supported but not extensively tested      |
|     yet).                                                                   |

   TITEL  = PAW_PBE B 06Sep2000
   POMASS =   10.811; ZVAL   =    3.000    mass and valenz
   ENMAX  =  318.614; ENMIN  =  238.960 eV

   TITEL  = PAW_PBE C 08Apr2002
   POMASS =   12.011; ZVAL   =    4.000    mass and valenz
   ENMAX  =  400.000; ENMIN  =  300.000 eV

  PAW_PBE B 06Sep2000                   :
  PAW_PBE C 08Apr2002                   :

 POSCAR: Graphene-Borophene Top with lattice para
  positions in direct lattice
  velocities in cartesian coordinates
 exchange correlation table for  LEXCH =        8
   RHO(1)=    0.500       N(1)  =     2000
   RHO(2)=  100.500       N(2)  =     4000

 ion  position               nearest neighbor table
   1  0.669  0.000  0.101-   3 1.65   6 1.65   7 1.68   8 1.68   2 1.68
   2  0.332  0.000  0.101-   5 1.65   4 1.65   7 1.68   8 1.68   1 1.68
   3  1.000  0.331  0.101-   1 1.65   5 1.65   7 1.68   8 1.68   4 1.68
   4  1.000  0.668  0.101-   6 1.65   2 1.65   7 1.68   8 1.68   3 1.68
   5  0.332  0.331  0.101-   2 1.65   3 1.65   7 1.68   8 1.68   6 1.68
   6  0.669  0.668  0.101-   4 1.65   1 1.65   7 1.68   8 1.68   5 1.68
   7  0.667  0.333  0.088-   5 1.68   6 1.68   2 1.68   1 1.68   4 1.68   3 1.68
   8  0.333  0.667  0.114-   5 1.68   6 1.68   3 1.68   4 1.68   1 1.68   2 1.68
   9  0.167  0.333  0.335-  14 1.44  10 1.44  12 1.44
  10  0.333  0.167  0.334-  11 1.44   9 1.44  13 1.44
  11  0.167  0.833  0.335-  10 1.44  16 1.44  12 1.44
  12  0.333  0.667  0.335-   9 1.44  15 1.44  11 1.44
  13  0.667  0.333  0.334-  10 1.44  16 1.44  14 1.44
  14  0.833  0.167  0.334-   9 1.44  15 1.44  13 1.44
  15  0.667  0.833  0.335-  14 1.44  16 1.44  12 1.44
  16  0.833  0.667  0.334-  11 1.44  15 1.44  13 1.44

  LATTYP: Found a hexagonal cell.
 ALAT       =     4.9790000000
 C/A-ratio  =     3.0126531432

  Lattice vectors:

 A1 = (   4.3119404854,   2.4895000000,   0.0000000000)
 A2 = (  -4.3119404854,   2.4895000000,   0.0000000000)
 A3 = (   0.0000000000,   0.0000000000,  15.0000000000)

Analysis of symmetry for initial positions (statically):
 Subroutine PRICEL returns:
 Original cell was already a primitive cell.

 Routine SETGRP: Setting up the symmetry group for a
 hexagonal supercell.

 Subroutine GETGRP returns: Found  6 space group operations
 (whereof  6 operations were pure point group operations)
 out of a pool of 24 trial point group operations.

The static configuration has the point symmetry C_3v.

Analysis of symmetry for dynamics (positions and initial velocities):
 Subroutine PRICEL returns:
 Original cell was already a primitive cell.

 Routine SETGRP: Setting up the symmetry group for a
 hexagonal supercell.

 Subroutine GETGRP returns: Found  6 space group operations
 (whereof  6 operations were pure point group operations)
 out of a pool of 24 trial point group operations.

The dynamic configuration has the point symmetry C_3v.

 Subroutine INISYM returns: Found  6 space group operations
 (whereof  6 operations are pure point group operations),
 and found     1 'primitive' translations

                                     Primitive cell

  volume of cell :     322.0373

  direct lattice vectors                    reciprocal lattice vectors
     4.311940485  2.489500000  0.000000000     0.115957074  0.200843543  0.000000000
    -4.311940485  2.489500000  0.000000000    -0.115957074  0.200843543  0.000000000
     0.000000000  0.000000000 15.000000000     0.000000000  0.000000000  0.066666667

  length of vectors
     4.979000000  4.979000000 15.000000000     0.231914147  0.231914147  0.066666667

  position of ions in fractional coordinates (direct lattice)
     0.668529486  0.000031744  0.101490874
     0.331501257  0.000031744  0.101490874
     0.999968256  0.331469514  0.101490874
     0.999968256  0.668497743  0.101490874
     0.331501257  0.331469514  0.101490874
     0.668529486  0.668497743  0.101490874
     0.666666000  0.333333000  0.088455217
     0.333333000  0.666666000  0.114424057
     0.166653576  0.333308152  0.334568638
     0.333330518  0.166664759  0.334466239
     0.166653576  0.833345424  0.334568638
     0.333333000  0.666666000  0.334626021
     0.666666000  0.333333000  0.334444829
     0.833334241  0.166664759  0.334466239
     0.666690848  0.833345424  0.334568638
     0.833334241  0.666668482  0.334466239

  ion indices of the primitive-cell ions
   primitive index   ion index
                 1           1
                 2           2
                 3           3
                 4           4
                 5           5
                 6           6
                 7           7
                 8           8
                 9           9
                10          10
                11          11
                12          12
                13          13
                14          14
                15          15
                16          16

 KPOINTS: k-points

Automatic generation of k-mesh.
 Grid dimensions read from file:
 generate k-points for:   17   17    1

 Generating k-lattice:

  Cartesian coordinates                     Fractional coordinates (reciprocal lattice)
     0.006821004  0.011814326  0.000000000     0.058823529 -0.000000000  0.000000000
    -0.006821004  0.011814326  0.000000000    -0.000000000  0.058823529  0.000000000
     0.000000000  0.000000000  0.066666667     0.000000000  0.000000000  1.000000000

  Length of vectors
     0.013642009  0.013642009  0.066666667

  Shift w.r.t. Gamma in fractional coordinates (k-lattice)
     0.000000000  0.000000000  0.000000000

 Subroutine IBZKPT returns following result:

 Found     33 irreducible k-points:

 Following reciprocal coordinates:
            Coordinates               Weight
  0.000000  0.000000  0.000000      1.000000
  0.058824  0.000000  0.000000      6.000000
  0.117647 -0.000000  0.000000      6.000000
  0.176471 -0.000000  0.000000      6.000000
  0.235294 -0.000000  0.000000      6.000000
  0.294118  0.000000  0.000000      6.000000
  0.352941  0.000000  0.000000      6.000000
  0.411765 -0.000000  0.000000      6.000000
  0.470588 -0.000000  0.000000      6.000000
  0.058824  0.058824  0.000000      6.000000
  0.117647  0.058824  0.000000     12.000000
  0.176471  0.058824  0.000000     12.000000
  0.235294  0.058824  0.000000     12.000000
  0.294118  0.058824  0.000000     12.000000
  0.352941  0.058824  0.000000     12.000000
  0.411765  0.058824  0.000000     12.000000
  0.470588  0.058824  0.000000      6.000000
  0.117647  0.117647  0.000000      6.000000
  0.176471  0.117647  0.000000     12.000000
  0.235294  0.117647  0.000000     12.000000
  0.294118  0.117647  0.000000     12.000000
  0.352941  0.117647  0.000000     12.000000
  0.411765  0.117647  0.000000     12.000000
  0.176471  0.176471  0.000000      6.000000
  0.235294  0.176471  0.000000     12.000000
  0.294118  0.176471  0.000000     12.000000
  0.352941  0.176471  0.000000     12.000000
  0.411765  0.176471  0.000000      6.000000
  0.235294  0.235294  0.000000      6.000000
  0.294118  0.235294  0.000000     12.000000
  0.352941  0.235294  0.000000     12.000000
  0.294118  0.294118  0.000000      6.000000
  0.352941  0.294118  0.000000      6.000000

 Following cartesian coordinates:
            Coordinates               Weight
  0.000000  0.000000  0.000000      1.000000
  0.006821  0.011814  0.000000      6.000000
  0.013642  0.023629  0.000000      6.000000
  0.020463  0.035443  0.000000      6.000000
  0.027284  0.047257  0.000000      6.000000
  0.034105  0.059072  0.000000      6.000000
  0.040926  0.070886  0.000000      6.000000
  0.047747  0.082700  0.000000      6.000000
  0.054568  0.094515  0.000000      6.000000
  0.000000  0.023629  0.000000      6.000000
  0.006821  0.035443  0.000000     12.000000
  0.013642  0.047257  0.000000     12.000000
  0.020463  0.059072  0.000000     12.000000
  0.027284  0.070886  0.000000     12.000000
  0.034105  0.082700  0.000000     12.000000
  0.040926  0.094515  0.000000     12.000000
  0.047747  0.106329  0.000000      6.000000
  0.000000  0.047257  0.000000      6.000000
  0.006821  0.059072  0.000000     12.000000
  0.013642  0.070886  0.000000     12.000000
  0.020463  0.082700  0.000000     12.000000
  0.027284  0.094515  0.000000     12.000000
  0.034105  0.106329  0.000000     12.000000
  0.000000  0.070886  0.000000      6.000000
  0.006821  0.082700  0.000000     12.000000
  0.013642  0.094515  0.000000     12.000000
  0.020463  0.106329  0.000000     12.000000
  0.027284  0.118143  0.000000      6.000000
  0.000000  0.094515  0.000000      6.000000
  0.006821  0.106329  0.000000     12.000000
  0.013642  0.118143  0.000000     12.000000
  0.000000  0.118143  0.000000      6.000000
  0.006821  0.129958  0.000000      6.000000

 Subroutine IBZKPT_HF returns following result:

 Found    289 k-points in 1st BZ
 the following    289 k-points will be used (e.g. in the exchange kernel)
 Following reciprocal coordinates:   # in IRBZ
  0.000000  0.000000  0.000000    0.00346021   1 t-inv F
  0.058824  0.000000  0.000000    0.00346021   2 t-inv F
  0.117647 -0.000000  0.000000    0.00346021   3 t-inv F
  0.176471 -0.000000  0.000000    0.00346021   4 t-inv F
  0.235294 -0.000000  0.000000    0.00346021   5 t-inv F
  0.294118  0.000000  0.000000    0.00346021   6 t-inv F
  0.352941  0.000000  0.000000    0.00346021   7 t-inv F
  0.411765 -0.000000  0.000000    0.00346021   8 t-inv F
  0.470588 -0.000000  0.000000    0.00346021   9 t-inv F
  0.058824  0.058824  0.000000    0.00346021  10 t-inv F
  0.117647  0.058824  0.000000    0.00346021  11 t-inv F
[...]
 m_bcast_z                             331.338614       71853
 bg_ppotrf_trtri                       222.248918        5115
 proj1                                 219.988899      334301
 w1_copy                               181.234921      430716
 crexp_mul_wave                        138.848521     5348816
 depsum_two_bands_rholm_trace          127.902498    ********
 gemm                                  118.146876      549824
 fock_set_fsg                          101.663303          16
 fftwav                                 83.551064      396572
 depsum_two_bands_rholm_trace_m         59.554162     2508231
 waitred                                51.948973        8646
 vhamil                                 49.026331       17699
 phase                                  43.297017       14403
 pdssyex_zheevx                         41.083021         759
 eddav                                  40.074977         108
 orth1                                  38.695866       48114
 waitgth                                32.372475        8646
 work_mul_crexp                         22.651351      549824
 apply_gfac_weight                      19.804840      267036
 orth1_nosubindex                       19.177776        5115
 spher                                  15.506845         222
 fock_ace_acc_apply                     15.362895       16940
 ggemm                                  14.949578       16940
 wfinit                                 13.167562          13
 fock_charge_mu                          9.272701     2508231
 eddiag_lr                               8.659124          39
 lrf_rphi0                               8.300828          39
 edwav                                   7.860487          22
 eccp                                    7.400761        5643
 redis_pw                                5.662923      127963
 pw_charge_trace_mu                      4.778177     2508231
 racc0mu_hf                              4.765727     2508231
 m_bcast_d                               4.451877       33907
 w1_daxpy                                4.155468       16940
 spher_der                               4.098716          78
 dllmm_trans_eccp_nl_fock                3.885618       28611
 eccp_nl_fock                            3.824784    12817728
 fock_force                              2.425741           1
 redis_proj                              2.161371      108152
 distri_slice                            2.095190        5115
 w1_dot                                  2.074071        3465
 depsum_two_bands_rholm_trace_m          1.994862     2508231
 pw_charge                               1.909993        6647
 fock_bck                                1.792374        8646
 hamiltmu                                1.576197       16940
 apply_precond                           1.565865       13475
 lincom_slice                            1.416173        5115
 m_alltoallv_z                           1.362616         419
 hamiltmu_commutator                     1.290014        2475
 wrk_allocate                            1.126536           1
 dfftw_execute                           1.109930        1116
 soft_charge_sym                         1.069870          23
 fftext_mpi                              1.062138       26972
 fft_and_gather                          1.059668        8679
 vnlac0                                  0.764717       34364
 kinhamil                                0.715301       17699
 w1_dscal                                0.682541         726
 reduce                                  0.594491        8646
 lincom                                  0.571921        1485
 recon_slice                             0.503912        5115
 fftbas_plan_mpi                         0.491665         372
 lrf_commutator                          0.467003          39
 ggaall_grid                             0.440352          25
 elmin_all                               0.421931           1
 fftwav_mpi                              0.400180      396572
 overl1                                  0.283622       31163
 orth1_distri                            0.262230        5115
 force_and_stress                        0.174068           1
 densta                                  0.173317          27
 fornl                                   0.172886           1
 potlok                                  0.154096          24
 projxyz                                 0.153632          33
 orthch                                  0.145138          35
 overl                                   0.136489       36652
 eddiag                                  0.117812           1
 inisym                                  0.079881           1
 fock_ace_construct                      0.076892         108
 setup_precond                           0.076183        3465
 lincom_distri                           0.057989        5115
 newband                                 0.056597       20405
 w1_projall                              0.035726       13475
 choleski                                0.023895        5115
 depsum_sym                              0.022558          23
 contraction                             0.018004       28611
 set_charge                              0.016888          23
 crpa_reader                             0.015848           1
 brgrid                                  0.015422           1
 forloc                                  0.012785           1
 map_scatter                             0.011851         419
 setdij_                                 0.010803          32
 map_gather                              0.010532         419
 rspher_all                              0.009970           4
 wrk_deallocate                          0.008851           1
 m_sum_g                                 0.008561       10230
 augmentation_charge                     0.007761          23
 truncate_high_frequency_w1              0.007102       20405
 overl1_c                                0.006422        2475
 hamilt_local                            0.005465         759
 set_dd_paw                              0.003207          25
 proall                                  0.002527          13
 proj                                    0.002517         825
 fft_gq                                  0.002116          23
 pothar                                  0.001408          24
 forhar                                  0.001152           1
 set_dd_magatom                          0.001152           2
 fewald                                  0.001027           1
 posmap                                  0.000855           2
 redis_pw_all                            0.000655          22
 FERMAT_RAZOR                            0.000648           1
 map_forward                             0.000525         352
 map_backward                            0.000506         392
 rsp                                     0.000412           1
 stufak                                  0.000359           1
 vectorpot                               0.000334           1
 fftbrc_mpi                              0.000203         372
 rcp                                     0.000030           1
 redis_pw_over_bands                     0.000019          23
 fordep                                  0.000019           1
 potlok_metagga                          0.000009          23
 shift_bands_between_low_high            0.000004          33
 rotate_active_occupied_orbital          0.000001           1
  summed up times    725691.466846943

 Accumulative profile

 total_time                         725691.466847           1
 fft3d                              395304.012669    ********
 fft3d_mpi                          395236.247015    ********
 fock_all_dblbuf                    365551.522863         131
 fock_fwd                           327856.720643        8646
 elmin_all                           63750.025579           1
 fock_charge_mu                      60976.761798     2508231
 edwav                               60678.280122          22
 vhamil_trace                        56525.377870    ********
 pw_charge_trace_mu                  44839.148067     2508231
 pw_charge_trace_mu_                 44834.369890     2508231
 reduce                              34118.083402        8646
 m_ireduce_z_to                      34117.488911     1106688
 apply_gfac_exchange                 22229.986417    ********
 pw_charge_trace                     18308.985476    91555200
 m_sumb_d                            18023.451941      101377
 rpro1_hf                            14553.001377    ********
 racc0_hf                            14435.956785    ********
 apply_gfac                          14300.618027    ********
 lr_optic                            13863.616764           1
 rpromu_hf                           13824.032121     2536842
 racc0mu_hf                          13502.694023     2508231
 racc0mu_hf_                         13497.928297     2508231
 apply_gfac_qder                     13273.297573    91555200
 fock_set_gfac_vkpt                  11784.728901     4654056
 depsum_two_bands_rholm_trace         5376.197739    ********
 depsum_two_bands_rholm_trace_        5248.295241    ********
 calc_dllmm_trans                     4731.608808    ********
 eddav                                4672.406206         108
 eddiag                               3052.885282           1
 depsum_two_bands_rholm_trace_m       2625.647007     2508231
 depsum_two_bands_rholm_trace_m       2623.652146     2508231
 fft_and_gather                       2470.922905        8679
 lapack                               2413.003303       16940
 m_ibcast_z_from                      2345.340494     1111308
 phaser_hf                            1944.989839     4654056
 m_alltoall_d                         1004.091258      236115
 redis_pw                              785.761779      127963
 overl_fock                            707.507740    ********
 force_and_stress                      602.687583           1
 fock_force                            601.858459           1
 fftwav_mpi                            569.795646      396572
 fftwav                                569.395467      396572
 proj1                                 358.837419      334301
 fock_ace_acc_apply                    352.053905       16940
 fock_ace_construct                    331.728240         108
 m_bcast_z                             331.338614       71853
 fftext_mpi                            325.011713       26972
 fock_bck                              231.713189        8646
 redis_proj                            226.153774      108152
 choleski                              222.272813        5115
 bg_ppotrf_trtri                       222.248918        5115
 lrf_rphi0                             189.400338          39
 w1_copy                               181.234921      430716
 vnlac0                                141.562944       34364
 crexp_mul_wave                        138.848521     5348816
 hamiltmu                              130.879425       16940
 eddiag_lr                             128.411890          39
 gemm                                  118.146876      549824
 fock_set_fsg                          101.663303          16
 orth1_distri                           57.183121        5115
 m_sum_g                                56.743078       10230
 orthch                                 52.226165          35
 waitred                                51.948973        8646
 kinhamil                               50.792645       17699
 vhamil                                 49.026331       17699
 newband                                47.518125       20405
 lrf_commutator                         44.992046          39
 phase                                  43.297017       14403
 pdssyex_zheevx                         41.083021         759
 orth1                                  38.695866       48114
 wfinit                                 37.297874          13
 waitgth                                32.372475        8646
 dllmm_trans_eccp_nl_fock               27.612049       28611
 w1_projall                             24.748395       13475
 lincom_distri                          23.073226        5115
 work_mul_crexp                         22.651351      549824
 apply_gfac_weight                      19.804840      267036
 orth1_nosubindex                       19.177776        5115
 hamiltmu_commutator                    18.820828        2475
 set_charge                             16.476349          23
 soft_charge_sym                        16.163409          23
 spher                                  15.506845         222
 ggemm                                  14.949578       16940
 spher_der                              14.907449          78
 wrk_allocate                            7.586323           1
 eccp                                    7.400761        5643
 hamilt_local                            5.142511         759
 m_bcast_d                               4.451877       33907
 w1_daxpy                                4.155468       16940
 proall                                  4.033933          13
 eccp_nl_fock                            3.824784    12817728
 redis_pw_over_bands                     3.343837          23
 redis_pw_all                            3.343818          22
 fftbrc_mpi                              2.987828         372
 fftbas_plan_mpi                         2.987625         372
 potlok                                  2.274606          24
 distri_slice                            2.095190        5115
 w1_dot                                  2.074071        3465
 pw_charge                               1.909993        6647
 densta                                  1.713940          27
 apply_precond                           1.565865       13475
 lincom_slice                            1.416173        5115
 m_alltoallv_z                           1.362616         419
 proj                                    1.308506         825
 fft_gq                                  1.206910          23
 dfftw_execute                           1.109930        1116
 map_backward                            0.936625         392
 set_dd_paw                              0.831357          25
 w1_dscal                                0.682541         726
 lincom                                  0.571921        1485
 recon_slice                             0.503912        5115
 map_forward                             0.449405         352
 fornl                                   0.447139           1
 ggaall_grid                             0.440352          25
 overl1                                  0.283622       31163
 augmentation_charge                     0.172356          23
 projxyz                                 0.153637          33
 overl                                   0.136489       36652
 depsum_sym                              0.123697          23
 inisym                                  0.080736           1
 setup_precond                           0.076183        3465
 setdij_                                 0.036924          32
 pothar                                  0.018944          24
 contraction                             0.018004       28611
 crpa_reader                             0.015848           1
 brgrid                                  0.015422           1
 forloc                                  0.013649           1
 map_scatter                             0.011851         419
 map_gather                              0.010532         419
 rspher_all                              0.009970           4
 wrk_deallocate                          0.008851           1
 truncate_high_frequency_w1              0.007102       20405
 overl1_c                                0.006422        2475
 fordep                                  0.005274           1
 fewald                                  0.002342           1
 forhar                                  0.002151           1
 set_dd_magatom                          0.001152           2
 posmap                                  0.000855           2
 FERMAT_RAZOR                            0.000648           1
 rsp                                     0.000412           1
 stufak                                  0.000359           1
 vectorpot                               0.000334           1
 rcp                                     0.000030           1
 potlok_metagga                          0.000009          23
 shift_bands_between_low_high            0.000004          33
 rotate_active_occupied_orbital          0.000001           1

Profiling took **********363.201570  0.023136  0.023032 seconds
Profiling took 846.999545 seconds