 vasp.6.3.2 27Jun22 (build May 31 2023 12:07:17) complex

 executed on             LinuxIFC date 2024.03.15  17:33:01

 INCAR:
   SYSTEM = BS_HSE06
   ISTART = 1
   ICHARG = 2
   PREC = Accurate
   LORBIT = 11
   ENCUT = 450
   ALGO = Damped
   TIME = 0.4
   NELM = 200
   EDIFF = 1E-6
   EDIFFG = -1E-3
   SIGMA = 0.1
   ISMEAR = 0
   IBRION = -1
   GGA = PE
   LHFCALC = .TRUE.
   AEXX = 0.25
   HFSCREEN = 0.2
   NKRED = 1

 POTCAR:    PAW_PBE B 06Sep2000
 POTCAR:    PAW_PBE C 08Apr2002
|           W    W    AA    RRRRR   N    N  II  N    N   GGGG   !!!           |
|           W    W   A  A   R    R  NN   N  II  NN   N  G    G  !!!           |
|           W    W  A    A  R    R  N N  N  II  N N  N  G       !!!           |
|           W WW W  AAAAAA  RRRRR   N  N N  II  N  N N  G  GGG   !            |
|           WW  WW  A    A  R   R   N   NN  II  N   NN  G    G                |
|           W    W  A    A  R    R  N    N  II  N    N   GGGG   !!!           |
|     For optimal performance we recommend to set                             |
|       NCORE = 2 up to number-of-cores-per-socket                            |
|     This setting can greatly improve the performance of VASP for DFT.       |
|     The default, NCORE=1 might be grossly inefficient on modern             |
|     multi-core architectures or massively parallel machines. Do your        |
|     Unfortunately you need to use the default for GW and RPA                |
|     calculations (for HF NCORE is supported but not extensively tested      |
|     yet).                                                                   |

   TITEL  = PAW_PBE B 06Sep2000
   POMASS =   10.811; ZVAL   =    3.000    mass and valenz
   ENMAX  =  318.614; ENMIN  =  238.960 eV

   TITEL  = PAW_PBE C 08Apr2002
   POMASS =   12.011; ZVAL   =    4.000    mass and valenz
   ENMAX  =  400.000; ENMIN  =  300.000 eV

  PAW_PBE B 06Sep2000                   :
  PAW_PBE C 08Apr2002                   :

 POSCAR: Graphene-BC3 Hollow with lattice paramet
  positions in direct lattice
  velocities in cartesian coordinates
 exchange correlation table for  LEXCH =        8
   RHO(1)=    0.500       N(1)  =     2000
   RHO(2)=  100.500       N(2)  =     4000

 ion  position               nearest neighbor table
   1  0.338  0.669  0.113-   7 1.52   5 1.52   3 1.52
   2  0.672  0.336  0.113-   8 1.52   6 1.52   4 1.52
   3  0.164  0.322  0.113-   4 1.39   6 1.39   1 1.52
   4  0.324  0.162  0.113-   5 1.39   3 1.39   2 1.52
   5  0.164  0.843  0.113-   4 1.39   8 1.39   1 1.52
   6  0.845  0.162  0.113-   7 1.39   3 1.39   2 1.52
   7  0.686  0.843  0.113-   6 1.39   8 1.39   1 1.52
   8  0.845  0.683  0.113-   7 1.39   5 1.39   2 1.52
   9  0.333  0.167  0.338-  10 1.46  12 1.46  14 1.46
  10  0.500  0.000  0.338-   9 1.46  13 1.46  11 1.46
  11  0.333  0.667  0.338-  16 1.46  12 1.46  10 1.46
  12  0.500  0.500  0.338-   9 1.46  15 1.46  11 1.46
  13  0.833  0.167  0.338-  16 1.46  10 1.46  14 1.46
  14  0.000  0.000  0.338-   9 1.46  13 1.46  15 1.46
  15  0.833  0.667  0.338-  16 1.46  12 1.46  14 1.46
  16  0.000  0.500  0.338-  15 1.46  13 1.46  11 1.46

  LATTYP: Found a hexagonal cell.
 ALAT       =     5.0440000000
 C/A-ratio  =     2.9738302934

  Lattice vectors:

 A1 = (   4.3682321367,   2.5220000000,   0.0000000000)
 A2 = (  -4.3682321367,   2.5220000000,   0.0000000000)
 A3 = (   0.0000000000,   0.0000000000,  15.0000000000)

Analysis of symmetry for initial positions (statically):
 Subroutine PRICEL returns:
 Original cell was already a primitive cell.

 Routine SETGRP: Setting up the symmetry group for a
 hexagonal supercell.

 Subroutine GETGRP returns: Found  1 space group operations
 (whereof  1 operations were pure point group operations)
 out of a pool of 24 trial point group operations.

The static configuration has the point symmetry C_1 .

Analysis of symmetry for dynamics (positions and initial velocities):
 Subroutine PRICEL returns:
 Original cell was already a primitive cell.

 Routine SETGRP: Setting up the symmetry group for a
 hexagonal supercell.

 Subroutine GETGRP returns: Found  1 space group operations
 (whereof  1 operations were pure point group operations)
 out of a pool of 24 trial point group operations.

The dynamic configuration has the point symmetry C_1 .

 Subroutine INISYM returns: Found  1 space group operations
 (whereof  1 operations are pure point group operations),
 and found     1 'primitive' translations

                                     Primitive cell

  volume of cell :     330.5004

  direct lattice vectors                    reciprocal lattice vectors
     4.368232137  2.522000000  0.000000000     0.114462781  0.198255353  0.000000000
    -4.368232137  2.522000000  0.000000000    -0.114462781  0.198255353  0.000000000
     0.000000000  0.000000000 15.000000000     0.000000000  0.000000000  0.066666667

  length of vectors
     5.044000000  5.044000000 15.000000000     0.228925563  0.228925563  0.066666667

  position of ions in fractional coordinates (direct lattice)
     0.338203334  0.669098661  0.113381622
     0.671538623  0.335766770  0.113066104
     0.164492162  0.321676120  0.113073872
     0.324038669  0.162015918  0.113080124
     0.164492146  0.842809624  0.113074202
     0.845282693  0.162014532  0.113070458
     0.685620398  0.842806916  0.113065505
     0.845283256  0.683261954  0.113070868
     0.333481117  0.166743137  0.338140385
     0.500169288  0.000150954  0.338117411
     0.333461746  0.666733449  0.337831925
     0.500169285  0.500023737  0.338117409
     0.833456475  0.166744471  0.338135786
     0.000131755  0.000068577  0.338120511
     0.833456492  0.666717201  0.338135817
     0.000047897  0.500026647  0.338118001

  ion indices of the primitive-cell ions
   primitive index   ion index
                 1           1
                 2           2
                 3           3
                 4           4
                 5           5
                 6           6
                 7           7
                 8           8
                 9           9
                10          10
                11          11
                12          12
                13          13
                14          14
                15          15
                16          16

 KPOINTS: k-points

Automatic generation of k-mesh.
 Grid dimensions read from file:
 generate k-points for:   17   17    1

 Generating k-lattice:

  Cartesian coordinates                     Fractional coordinates (reciprocal lattice)
     0.006733105  0.011662080  0.000000000     0.058823529  0.000000000  0.000000000
    -0.006733105  0.011662080  0.000000000     0.000000000  0.058823529  0.000000000
     0.000000000  0.000000000  0.066666667     0.000000000  0.000000000  1.000000000

  Length of vectors
     0.013466210  0.013466210  0.066666667

  Shift w.r.t. Gamma in fractional coordinates (k-lattice)
     0.000000000  0.000000000  0.000000000

 Subroutine IBZKPT returns following result:

 Found    145 irreducible k-points:

 Following reciprocal coordinates:
            Coordinates               Weight
  0.000000  0.000000  0.000000      1.000000
  0.058824 -0.000000  0.000000      2.000000
 -0.000000  0.058824  0.000000      2.000000
 -0.058824  0.058824  0.000000      2.000000
  0.117647 -0.000000  0.000000      2.000000
 -0.000000  0.117647  0.000000      2.000000
 -0.117647  0.117647  0.000000      2.000000
  0.176471  0.000000  0.000000      2.000000
  0.000000  0.176471  0.000000      2.000000
 -0.176471  0.176471  0.000000      2.000000
  0.235294 -0.000000  0.000000      2.000000
 -0.000000  0.235294  0.000000      2.000000
 -0.235294  0.235294  0.000000      2.000000
  0.294118 -0.000000  0.000000      2.000000
 -0.000000  0.294118  0.000000      2.000000
 -0.294118  0.294118  0.000000      2.000000
  0.352941  0.000000  0.000000      2.000000
  0.000000  0.352941  0.000000      2.000000
 -0.352941  0.352941  0.000000      2.000000
  0.411765 -0.000000  0.000000      2.000000
 -0.000000  0.411765  0.000000      2.000000
 -0.411765  0.411765  0.000000      2.000000
  0.470588 -0.000000  0.000000      2.000000
 -0.000000  0.470588  0.000000      2.000000
 -0.470588  0.470588  0.000000      2.000000
  0.058824  0.058824  0.000000      2.000000
 -0.058824  0.117647  0.000000      2.000000
 -0.117647  0.058824  0.000000      2.000000
  0.117647  0.058824  0.000000      2.000000
 -0.058824  0.176471  0.000000      2.000000
 -0.176471  0.117647  0.000000      2.000000
 -0.117647  0.176471  0.000000      2.000000
  0.058824  0.117647  0.000000      2.000000
  0.176471 -0.058824  0.000000      2.000000
  0.176471  0.058824  0.000000      2.000000
 -0.058824  0.235294  0.000000      2.000000
 -0.235294  0.176471  0.000000      2.000000
 -0.176471  0.235294  0.000000      2.000000
  0.058824  0.176471  0.000000      2.000000
  0.235294 -0.058824  0.000000      2.000000
  0.235294  0.058824  0.000000      2.000000
 -0.058824  0.294118  0.000000      2.000000
 -0.294118  0.235294  0.000000      2.000000
 -0.235294  0.294118  0.000000      2.000000
  0.058824  0.235294  0.000000      2.000000
  0.294118 -0.058824  0.000000      2.000000
  0.294118  0.058824  0.000000      2.000000
 -0.058824  0.352941  0.000000      2.000000
 -0.352941  0.294118  0.000000      2.000000
 -0.294118  0.352941  0.000000      2.000000
  0.058824  0.294118  0.000000      2.000000
  0.352941 -0.058824  0.000000      2.000000
  0.352941  0.058824  0.000000      2.000000
 -0.058824  0.411765  0.000000      2.000000
 -0.411765  0.352941  0.000000      2.000000
 -0.352941  0.411765  0.000000      2.000000
  0.058824  0.352941  0.000000      2.000000
  0.411765 -0.058824  0.000000      2.000000
  0.411765  0.058824  0.000000      2.000000
 -0.058824  0.470588  0.000000      2.000000
[...]
 -0.294118 -0.470588  0.000000      2.000000
  0.235294  0.294118  0.000000      2.000000
 -0.470588 -0.235294  0.000000      2.000000
  0.352941  0.235294  0.000000      2.000000
 -0.235294 -0.411765  0.000000      2.000000
  0.411765  0.352941  0.000000      2.000000
 -0.352941 -0.411765  0.000000      2.000000
  0.235294  0.352941  0.000000      2.000000
 -0.411765 -0.235294  0.000000      2.000000
  0.294118  0.294118  0.000000      2.000000
 -0.294118 -0.411765  0.000000      2.000000
  0.411765  0.294118  0.000000      2.000000
  0.352941  0.294118  0.000000      2.000000
 -0.294118 -0.352941  0.000000      2.000000
  0.352941  0.352941  0.000000      2.000000

 Following cartesian coordinates:
            Coordinates               Weight
  0.000000  0.000000  0.000000      1.000000
  0.006733  0.011662  0.000000      2.000000
 -0.006733  0.011662  0.000000      2.000000
 -0.013466  0.000000  0.000000      2.000000
  0.013466  0.023324  0.000000      2.000000
 -0.013466  0.023324  0.000000      2.000000
 -0.026932  0.000000  0.000000      2.000000
  0.020199  0.034986  0.000000      2.000000
 -0.020199  0.034986  0.000000      2.000000
 -0.040399  0.000000  0.000000      2.000000
  0.026932  0.046648  0.000000      2.000000
 -0.026932  0.046648  0.000000      2.000000
 -0.053865  0.000000  0.000000      2.000000
[...]
 apply_gfac_exchange                 22534.304966    ********
 racc0mu_hf_                         12112.782616     2556205
 rpromu_hf                           11920.099259     2681920
 fock_set_gfac_vkpt                   5293.863506     2556205
 m_ibcast_z_from                      1505.297161      858400
 phaser_hf                            1232.112726     2556205
 depsum_two_bands_rholm_trace_        1177.014435    ********
 calc_dllmm_trans                      985.337987    ********
 fock_fwd                              976.414038        8700
 overl_fock                            275.081121    ********
 m_sumb_d                              249.361686       53602
 lapack                                240.847085        5184
 m_alltoall_d                          214.547640      120792
 fftwav                                214.064961     1300324
 fft3d_mpi                             165.981936    ********
 fock_all_dblbuf                       139.935263          30
 apply_gfac_weight                     110.904179     1340960
 w1_copy                               105.097748     1309138
 pdssyex_zheevx                         91.374160        2755
 fock_set_fsg                           69.574796          11
 depsum_two_bands_rholm_trace_m         58.237661     2556205
 depsum_two_bands_rholm_trace           54.728015    ********
 total_time                             42.324748           1
 waitgth                                29.520615        8700
 phase                                  28.429613        8890
 m_bcast_z                              26.954436       33025
 dllmm_trans_eccp_nl_fock               26.765683      125715
 waitred                                26.420984        8700
 gemm                                   25.729389      194304
 eccp_nl_fock                           24.951836    64366080
 edwav                                  14.989924          18
 bg_ppotrf_trtri                        13.281377        4640
 fock_charge_mu                         10.236886     2556205
 vhamil                                 10.082182        7939
 orth1                                   8.556956       17251
 fock_force                              8.303921           1
 eccp                                    7.271542        8886
 racc0mu_hf                              6.425424     2556205
 work_mul_crexp                          6.070849      194304
 wfinit                                  5.579762           2
 pw_charge_trace_mu                      4.509282     2556205
 sphpro_fast                             4.418796           3
 eddav                                   4.146771          11
 proj1                                   3.979422        7173
 crexp_mul_wave                          3.652739      114768
 wrk_allocate                            2.630378           1
 orth1_nosubindex                        2.323156        4640
 fock_ace_acc_apply                      2.257026        5184
 fftbas_plan_mpi                         2.165565         299
 dfftw_execute                           2.125359         897
 depsum_two_bands_rholm_trace_m          2.061669     2556205
 ggemm                                   2.042238        5184
 pw_charge                               1.750934        5491
 fock_bck                                1.684136        8700
 spher                                   1.576411           5
 force_and_stress                        1.489895           1
 fft_and_gather                          1.426582        8845
 fftwav_mpi                              1.221014     1300324
 lincom                                  1.123584        5365
 m_alltoallv_z                           0.979556         337
 lincom_slice                            0.943993        4640
 w1_dscal                                0.779813        2610
 fornl                                   0.760031           1
 elmin_all                               0.720335           1
 projxyz                                 0.703811         145
 soft_charge_sym                         0.522730          19
 redis_pw                                0.512890       51336
 reduce                                  0.509956        8700
 orthch                                  0.454512          20
 fftext_mpi                              0.391936       12289
 w1_dot                                  0.341577        1056
 m_bcast_d                               0.338578       10390
 apply_precond                           0.328793        4128
 potlok                                  0.323175          19
 ggaall_grid                             0.319757          20
 hamiltmu                                0.271281        5184
 kinhamil                                0.237316        7939
 vnlac0                                  0.225660       12144
 redis_proj                              0.207242       69456
 distri_slice                            0.178899        4640
 densta                                  0.178550          21
 w1_daxpy                                0.163320        5184
 contraction                             0.097196      125715
 eddiag                                  0.089100           1
 inisym                                  0.069710           1
 orth1_distri                            0.064421        4640
 overl                                   0.058592       20332
 overl1                                  0.051999        9534
 fock_ace_construct                      0.047195          11
 recon_slice                             0.046022        4640
 lincom_distri                           0.027465        4640
 choleski                                0.024441        4640
 posmap                                  0.022304           2
 setdij_                                 0.022205          27
 set_dd_paw                              0.018054          20
 depsum_sym                              0.017170          19
 newband                                 0.015514        6240
 brgrid                                  0.013639           1
 setup_precond                           0.011638        1056
 hamilt_local                            0.009934        2755
 crpa_reader                             0.009533           1
 w1_projall                              0.008157        4128
 map_gather                              0.007897         337
 map_scatter                             0.007637         337
 augmentation_charge                     0.006857          19
 m_sum_g                                 0.005566        9280
 rspher_all                              0.004351           4
 forhar                                  0.002960           1
 pothar                                  0.002758          19
 fft_gq                                  0.002635          19
 truncate_high_frequency_w1              0.001705        6240
 redis_pw_all                            0.001510          18
 fewald                                  0.001119           1
 set_charge                              0.001039          19
 rsp                                     0.001025           1
 forloc                                  0.000925           1
 proall                                  0.000835           2
 proj                                    0.000777         435
 set_dd_magatom                          0.000616           2
 vectorpot                               0.000575           1
 map_backward                            0.000525         316
 stufak                                  0.000437           1
 map_forward                             0.000376         282
 fftbrc_mpi                              0.000232         299
 wrk_deallocate                          0.000174           1
 rcp                                     0.000035           1
 shift_bands_between_low_high            0.000020         145
 redis_pw_over_bands                     0.000020          19
 fordep                                  0.000018           1
 FERMAT_RAZOR                            0.000011           1
 potlok_metagga                          0.000010          19
 rotate_active_occupied_orbital          0.000002           1
  summed up times    284761.238184929

 Accumulative profile

 total_time                         284761.238185           1
 fock_all_dblbuf                    280593.553849          30
 fock_fwd                           232313.165796        8700
 elmin_all                          180641.294225           1
 edwav                              171166.173474          18
 fft3d                              119746.745911    ********
 fft3d_mpi                          119076.517666    ********
 reduce                              46989.119450        8700
 m_ireduce_z_to                      46988.609493      835200
 fock_charge_mu                      44188.397368     2556205
 pw_charge_trace_mu                  30766.910662     2556205
 pw_charge_trace_mu_                 30762.401380     2556205
 vhamil_trace                        27156.866722    ********
 apply_gfac_exchange                 22534.304966    ********
 racc0mu_hf                          12119.208040     2556205
 racc0mu_hf_                         12112.782616     2556205
 rpromu_hf                           11920.099259     2681920
 eddiag                               9450.490198           1
 fock_set_gfac_vkpt                   6525.976232     2556205
 force_and_stress                     3072.546265           1
 fock_force                           3069.232258           1
 fft_and_gather                       1545.354508        8845
 m_ibcast_z_from                      1505.297161      858400
 depsum_two_bands_rholm_trace_m       1292.041779     2556205
 depsum_two_bands_rholm_trace_m       1289.980110     2556205
 phaser_hf                            1232.112726     2556205
 depsum_two_bands_rholm_trace         1231.742449    ********
 depsum_two_bands_rholm_trace_        1177.014435    ********
 fftwav_mpi                           1056.783302     1300324
 fftwav                               1055.562289     1300324
 calc_dllmm_trans                      985.337987    ********
 eddav                                 571.931417          11
 overl_fock                            275.081121    ********
 m_sumb_d                              249.361686       53602
 lapack                                240.847085        5184
 m_alltoall_d                          214.547640      120792
 redis_pw                              160.899537       51336
 fock_bck                              138.070838        8700
 fftext_mpi                            128.033185       12289
 dllmm_trans_eccp_nl_fock              114.121410      125715
 apply_gfac_weight                     110.904179     1340960
 w1_copy                               105.097748     1309138
 pdssyex_zheevx                         91.374160        2755
 fock_set_fsg                           69.574796          11
 redis_proj                             54.368236       69456
 fock_ace_acc_apply                     52.934545        5184
 vnlac0                                 32.025897       12144
 orthch                                 31.809078          20
 fock_ace_construct                     31.725444          11
 waitgth                                29.520615        8700
 phase                                  28.429613        8890
 m_bcast_z                              26.954436       33025
 waitred                                26.420984        8700
 gemm                                   25.729389      194304
 eccp_nl_fock                           24.951836    64366080
 m_sum_g                                24.643334        9280
 set_charge                             22.281116          19
 hamiltmu                               22.208377        5184
 soft_charge_sym                        21.642855          19
 orth1_distri                           15.361193        4640
 wfinit                                 14.740166           2
 kinhamil                               14.061052        7939
 choleski                               13.305817        4640
 bg_ppotrf_trtri                        13.281377        4640
 lincom_distri                          12.866097        4640
 vhamil                                 10.082182        7939
 hamilt_local                            9.042865        2755
 wrk_allocate                            8.822954           1
 orth1                                   8.556956       17251
 redis_pw_over_bands                     8.177082          19
 redis_pw_all                            8.177062          18
 proj1                                   7.632161        7173
 eccp                                    7.271542        8886
 newband                                 7.101438        6240
 work_mul_crexp                          6.070849      194304
 fftbrc_mpi                              5.287146         299
 fftbas_plan_mpi                         5.286914         299
 sphpro_fast                             4.719911           3
 w1_projall                              4.548468        4128
 crexp_mul_wave                          3.652739      114768
 fft_gq                                  3.243142          19
 orth1_nosubindex                        2.323156        4640
 dfftw_execute                           2.125359         897
 ggemm                                   2.042238        5184
 proall                                  1.888033           2
 potlok                                  1.850297          19
 pw_charge                               1.750934        5491
 spher                                   1.576411           5
 fornl                                   1.379304           1
 lincom                                  1.123584        5365
 m_alltoallv_z                           0.979556         337
 lincom_slice                            0.943993        4640
 set_dd_paw                              0.826878          20
 w1_dscal                                0.779813        2610
 map_backward                            0.713292         316
 projxyz                                 0.703844         145
 augmentation_charge                     0.432759          19
 densta                                  0.374023          21
 w1_dot                                  0.341577        1056
 m_bcast_d                               0.338578       10390
 apply_precond                           0.328793        4128
 proj                                    0.326428         435
 ggaall_grid                             0.319757          20
 map_forward                             0.282698         282
 depsum_sym                              0.204464          19
 distri_slice                            0.178899        4640
 w1_daxpy                                0.163320        5184
 contraction                             0.097196      125715
 inisym                                  0.092014           1
 overl                                   0.058592       20332
 overl1                                  0.051999        9534
 recon_slice                             0.046022        4640
 setdij_                                 0.039940          27
 posmap                                  0.022304           2
 forloc                                  0.018069           1
 brgrid                                  0.013639           1
 setup_precond                           0.011638        1056
 pothar                                  0.009669          19
 crpa_reader                             0.009533           1
 map_gather                              0.007897         337
 map_scatter                             0.007637         337
 rspher_all                              0.004351           4
 fordep                                  0.003354           1
 forhar                                  0.003084           1
 fewald                                  0.002462           1
 truncate_high_frequency_w1              0.001705        6240
 rsp                                     0.001025           1
 set_dd_magatom                          0.000616           2
 vectorpot                               0.000575           1
 stufak                                  0.000437           1
 wrk_deallocate                          0.000174           1
 rcp                                     0.000035           1
 shift_bands_between_low_high            0.000020         145
 FERMAT_RAZOR                            0.000011           1
 potlok_metagga                          0.000010          19
 rotate_active_occupied_orbital          0.000002           1

Profiling took 262.182281159.990768  0.029933  0.029840 seconds
Profiling took 250.062454 seconds