 vasp.6.3.2 27Jun22 (build Dec 22 2022 13:13:19) complex

 executed on             LinuxIFC date 2024.03.04  18:56:15

 INCAR:
   SYSTEM = BS
   ISTART = 0
   ICHARG = 11
   PREC = Accurate
   LORBIT = 11
   ENCUT = 450
   ALGO = Normal
   NELM = 64
   EDIFF = 1E-6
   EDIFFG = -1E-3
   SIGMA = 0.1
   ISMEAR = 0
   GGA = PE
   IVDW = 12
   ISYM = 0

 POTCAR:    PAW_PBE B 06Sep2000
 POTCAR:    PAW_PBE C 08Apr2002
 POTCAR:    PAW_PBE B 06Sep2000
   VRHFIN =B: s2p1

   TITEL  = PAW_PBE B 06Sep2000
   POMASS =   10.811; ZVAL   =    3.000    mass and valenz
   ENMAX  =  318.614; ENMIN  =  238.960 eV

   TITEL  = PAW_PBE C 08Apr2002
   POMASS =   12.011; ZVAL   =    4.000    mass and valenz
   ENMAX  =  400.000; ENMIN  =  300.000 eV

  PAW_PBE B 06Sep2000                   :
  PAW_PBE C 08Apr2002                   :

 POSCAR: Graphene-Borophene Top with lattice para
  positions in direct lattice
  velocities in cartesian coordinates
 exchange correlation table for  LEXCH =        8
   RHO(1)=    0.500       N(1)  =     2000
   RHO(2)=  100.500       N(2)  =     4000

 VTST: version 4.2, (08/11/21)

 CHAIN: initializing optimizer

 OPT: Using VASP Dynamics algorithm
 CHAIN: Read ICHAIN            0

 POSCAR: Graphene-Borophene Top with lattice para
  positions in direct lattice
  velocities in cartesian coordinates

 ion  position               nearest neighbor table
   1  0.669  0.000  0.101-   3 1.65   6 1.65   7 1.68   8 1.68   2 1.68
   2  0.332  0.000  0.101-   5 1.65   4 1.65   7 1.68   8 1.68   1 1.68
   3  1.000  0.331  0.101-   1 1.65   5 1.65   7 1.68   8 1.68   4 1.68
   4  1.000  0.668  0.101-   6 1.65   2 1.65   7 1.68   8 1.68   3 1.68
   5  0.332  0.331  0.101-   2 1.65   3 1.65   7 1.68   8 1.68   6 1.68
   6  0.669  0.668  0.101-   4 1.65   1 1.65   7 1.68   8 1.68   5 1.68
   7  0.667  0.333  0.088-   5 1.68   6 1.68   2 1.68   1 1.68   4 1.68   3 1.68
   8  0.333  0.667  0.114-   5 1.68   6 1.68   3 1.68   4 1.68   1 1.68   2 1.68
   9  0.167  0.333  0.335-  14 1.44  10 1.44  12 1.44
  10  0.333  0.167  0.334-  11 1.44   9 1.44  13 1.44
  11  0.167  0.833  0.335-  16 1.44  10 1.44  12 1.44
  12  0.333  0.667  0.335-   9 1.44  15 1.44  11 1.44
  13  0.667  0.333  0.334-  10 1.44  16 1.44  14 1.44
  14  0.833  0.167  0.334-   9 1.44  15 1.44  13 1.44
  15  0.667  0.833  0.335-  14 1.44  16 1.44  12 1.44
  16  0.833  0.667  0.334-  11 1.44  15 1.44  13 1.44

IMPORTANT INFORMATION: All symmetrisations will be switched off!
NOSYMM: (Re-)initialisation of all symmetry stuff for point group C_1.

                                     Primitive cell

  volume of cell :     322.0373

  direct lattice vectors                    reciprocal lattice vectors
     4.311940485  2.489500000  0.000000000     0.115957074  0.200843543  0.000000000
    -4.311940485  2.489500000  0.000000000    -0.115957074  0.200843543  0.000000000
     0.000000000  0.000000000 15.000000000     0.000000000  0.000000000  0.066666667

  length of vectors
     4.979000000  4.979000000 15.000000000     0.231914147  0.231914147  0.066666667

  position of ions in fractional coordinates (direct lattice)
     0.668529486  0.000031744  0.101490874
     0.331501257  0.000031744  0.101490874
     0.999968256  0.331469514  0.101490874
     0.999968256  0.668497743  0.101490874
     0.331501257  0.331469514  0.101490874
     0.668529486  0.668497743  0.101490874
     0.666666000  0.333333000  0.088455217
     0.333333000  0.666666000  0.114424057
     0.166653576  0.333308152  0.334568638
     0.333330518  0.166664759  0.334466239
     0.166653576  0.833345424  0.334568638
     0.333333000  0.666666000  0.334626021
     0.666666000  0.333333000  0.334444829
     0.833334241  0.166664759  0.334466239
     0.666690848  0.833345424  0.334568638
     0.833334241  0.666668482  0.334466239

  ion indices of the primitive-cell ions
   primitive index   ion index
                 1           1
                 2           2
                 3           3
                 4           4
                 5           5
                 6           6
                 7           7
                 8           8
                 9           9
                10          10
                11          11
                12          12
                13          13
                14          14
                15          15
                16          16

 KPOINTS: K-points

Interpolating k-points between supplied coordinates.

 Line segments in fractional coordinates (reciprocal lattice):
    0.000000  0.000000  0.000000  ...  0.333000  0.333000  0.000000
    0.333000  0.333000  0.000000  ...  0.000000  0.500000  0.000000
    0.000000  0.500000  0.000000  ...  0.000000  0.000000  0.000000

 Generated   128 points on each line segment, for a total of    384 k-points:

 Following reciprocal coordinates:
            Coordinates               Weight
  0.000000  0.000000  0.000000      0.002604
  0.002622  0.002622  0.000000      0.002604
  0.005244  0.005244  0.000000      0.002604
  0.007866  0.007866  0.000000      0.002604
  0.010488  0.010488  0.000000      0.002604
  0.013110  0.013110  0.000000      0.002604
  0.015732  0.015732  0.000000      0.002604
  0.018354  0.018354  0.000000      0.002604
  0.020976  0.020976  0.000000      0.002604
  0.023598  0.023598  0.000000      0.002604
  0.026220  0.026220  0.000000      0.002604
  0.028843  0.028843  0.000000      0.002604
  0.031465  0.031465  0.000000      0.002604
  0.034087  0.034087  0.000000      0.002604
  0.036709  0.036709  0.000000      0.002604
  0.039331  0.039331  0.000000      0.002604
  0.041953  0.041953  0.000000      0.002604
  0.044575  0.044575  0.000000      0.002604
  0.047197  0.047197  0.000000      0.002604
  0.049819  0.049819  0.000000      0.002604
  0.052441  0.052441  0.000000      0.002604
  0.055063  0.055063  0.000000      0.002604
  0.057685  0.057685  0.000000      0.002604
  0.060307  0.060307  0.000000      0.002604
  0.062929  0.062929  0.000000      0.002604
  0.065551  0.065551  0.000000      0.002604
  0.068173  0.068173  0.000000      0.002604
  0.070795  0.070795  0.000000      0.002604
  0.073417  0.073417  0.000000      0.002604
  0.076039  0.076039  0.000000      0.002604
  0.078661  0.078661  0.000000      0.002604
  0.081283  0.081283  0.000000      0.002604
  0.083906  0.083906  0.000000      0.002604
  0.086528  0.086528  0.000000      0.002604
  0.089150  0.089150  0.000000      0.002604
  0.091772  0.091772  0.000000      0.002604
  0.094394  0.094394  0.000000      0.002604
  0.097016  0.097016  0.000000      0.002604
  0.099638  0.099638  0.000000      0.002604
  0.102260  0.102260  0.000000      0.002604
  0.104882  0.104882  0.000000      0.002604
  0.107504  0.107504  0.000000      0.002604
  0.110126  0.110126  0.000000      0.002604
  0.112748  0.112748  0.000000      0.002604
  0.115370  0.115370  0.000000      0.002604
  0.117992  0.117992  0.000000      0.002604
  0.120614  0.120614  0.000000      0.002604
  0.123236  0.123236  0.000000      0.002604
  0.125858  0.125858  0.000000      0.002604
  0.128480  0.128480  0.000000      0.002604
  0.131102  0.131102  0.000000      0.002604
  0.133724  0.133724  0.000000      0.002604
  0.136346  0.136346  0.000000      0.002604
  0.138969  0.138969  0.000000      0.002604
  0.141591  0.141591  0.000000      0.002604
  0.144213  0.144213  0.000000      0.002604
  0.146835  0.146835  0.000000      0.002604
  0.149457  0.149457  0.000000      0.002604
  0.152079  0.152079  0.000000      0.002604
  0.154701  0.154701  0.000000      0.002604
[...]
  0.000000  0.055118  0.000000      0.002604
  0.000000  0.051181  0.000000      0.002604
  0.000000  0.047244  0.000000      0.002604
  0.000000  0.043307  0.000000      0.002604
  0.000000  0.039370  0.000000      0.002604
  0.000000  0.035433  0.000000      0.002604
  0.000000  0.031496  0.000000      0.002604
  0.000000  0.027559  0.000000      0.002604
  0.000000  0.023622  0.000000      0.002604
  0.000000  0.019685  0.000000      0.002604
  0.000000  0.015748  0.000000      0.002604
  0.000000  0.011811  0.000000      0.002604
  0.000000  0.007874  0.000000      0.002604
  0.000000  0.003937  0.000000      0.002604
  0.000000  0.000000  0.000000      0.002604

 Following cartesian coordinates:
            Coordinates               Weight
  0.000000  0.000000  0.000000      0.002604
 -0.000000  0.001053  0.000000      0.002604
 -0.000000  0.002106  0.000000      0.002604
  0.000000  0.003160  0.000000      0.002604
 -0.000000  0.004213  0.000000      0.002604
  0.000000  0.005266  0.000000      0.002604
  0.000000  0.006319  0.000000      0.002604
  0.000000  0.007373  0.000000      0.002604
 -0.000000  0.008426  0.000000      0.002604
 -0.000000  0.009479  0.000000      0.002604
  0.000000  0.010532  0.000000      0.002604
 -0.000000  0.011586  0.000000      0.002604
  0.000000  0.012639  0.000000      0.002604
  0.000000  0.013692  0.000000      0.002604
  0.000000  0.014745  0.000000      0.002604
 -0.000000  0.015799  0.000000      0.002604
 -0.000000  0.016852  0.000000      0.002604
  0.000000  0.017905  0.000000      0.002604
 -0.000000  0.018958  0.000000      0.002604
 -0.000000  0.020012  0.000000      0.002604
  0.000000  0.021065  0.000000      0.002604
  0.000000  0.022118  0.000000      0.002604
 -0.000000  0.023171  0.000000      0.002604
  0.000000  0.024225  0.000000      0.002604
  0.000000  0.025278  0.000000      0.002604
 -0.000000  0.026331  0.000000      0.002604
  0.000000  0.027384  0.000000      0.002604
 -0.000000  0.028438  0.000000      0.002604
  0.000000  0.029491  0.000000      0.002604
 -0.000000  0.030544  0.000000      0.002604
 -0.000000  0.031597  0.000000      0.002604
  0.000000  0.032651  0.000000      0.002604
 -0.000000  0.033704  0.000000      0.002604
 -0.000000  0.034757  0.000000      0.002604
  0.000000  0.035810  0.000000      0.002604
 -0.000000  0.036863  0.000000      0.002604
 -0.000000  0.037917  0.000000      0.002604
  0.000000  0.038970  0.000000      0.002604
 -0.000000  0.040023  0.000000      0.002604
 -0.000000  0.041076  0.000000      0.002604
  0.000000  0.042130  0.000000      0.002604
 -0.000000  0.043183  0.000000      0.002604
  0.000000  0.044236  0.000000      0.002604
  0.000000  0.045289  0.000000      0.002604
 -0.000000  0.046343  0.000000      0.002604
  0.000000  0.047396  0.000000      0.002604
  0.000000  0.048449  0.000000      0.002604
 -0.000000  0.049502  0.000000      0.002604
  0.000000  0.050556  0.000000      0.002604
  0.000000  0.051609  0.000000      0.002604
 -0.000000  0.052662  0.000000      0.002604
  0.000000  0.053715  0.000000      0.002604
  0.000000  0.054769  0.000000      0.002604
  0.000000  0.055822  0.000000      0.002604
 -0.000000  0.056875  0.000000      0.002604
  0.000000  0.057928  0.000000      0.002604
  0.000000  0.058982  0.000000      0.002604
 -0.000000  0.060035  0.000000      0.002604
 -0.000000  0.061088  0.000000      0.002604
  0.000000  0.062141  0.000000      0.002604
[...]
 -0.006391  0.011070  0.000000      0.002604
 -0.005935  0.010279  0.000000      0.002604
 -0.005478  0.009489  0.000000      0.002604
[...]
 k-point  47 :   0.1206 0.1206 0.0000  plane waves:    6995
 k-point  48 :   0.1232 0.1232 0.0000  plane waves:    6999
 k-point  49 :   0.1259 0.1259 0.0000  plane waves:    6999
 k-point  50 :   0.1285 0.1285 0.0000  plane waves:    6999
 k-point  51 :   0.1311 0.1311 0.0000  plane waves:    7007
 k-point  52 :   0.1337 0.1337 0.0000  plane waves:    7003
 k-point  53 :   0.1363 0.1363 0.0000  plane waves:    7003
 k-point  54 :   0.1390 0.1390 0.0000  plane waves:    7003
 k-point  55 :   0.1416 0.1416 0.0000  plane waves:    7007
 k-point  56 :   0.1442 0.1442 0.0000  plane waves:    7003
 k-point  57 :   0.1468 0.1468 0.0000  plane waves:    7001
 k-point  58 :   0.1495 0.1495 0.0000  plane waves:    6999
 k-point  59 :   0.1521 0.1521 0.0000  plane waves:    6997
 k-point  60 :   0.1547 0.1547 0.0000  plane waves:    6997
[...]
 k-point 370 :   0.0000 0.0551 0.0000  plane waves:    7015
 k-point 371 :   0.0000 0.0512 0.0000  plane waves:    7011
 k-point 372 :   0.0000 0.0472 0.0000  plane waves:    7015
 k-point 373 :   0.0000 0.0433 0.0000  plane waves:    7017
 k-point 374 :   0.0000 0.0394 0.0000  plane waves:    7013
 k-point 375 :   0.0000 0.0354 0.0000  plane waves:    7017
 k-point 376 :   0.0000 0.0315 0.0000  plane waves:    7013
 k-point 377 :   0.0000 0.0276 0.0000  plane waves:    7013
 k-point 378 :   0.0000 0.0236 0.0000  plane waves:    7017
 k-point 379 :   0.0000 0.0197 0.0000  plane waves:    7021
 k-point 380 :   0.0000 0.0157 0.0000  plane waves:    7021
 k-point 381 :   0.0000 0.0118 0.0000  plane waves:    7017
 k-point 382 :   0.0000 0.0079 0.0000  plane waves:    7009
 k-point 383 :   0.0000 0.0039 0.0000  plane waves:    6997
 k-point 384 :   0.0000 0.0000 0.0000  plane waves:    7005

 maximum and minimum number of plane-waves per node :      7021     6920

 maximum number of plane-waves:      7021
 maximum index in each direction:
   IXMAX=    8   IYMAX=    8   IZMAX=   25
   IXMIN=   -8   IYMIN=   -9   IZMIN=  -25

 serial   3D FFT for wavefunctions
 parallel 3D FFT for charge:
    minimum data exchange during FFTs selected (reduces bandwidth)

 initial charge density was supplied:
 number of electron      55.9999991 magnetization
 keeping initial charge density in first step

 Maximum index for augmentation-charges          383 (set IRDMAX)

 First call to EWALD:  gamma=   0.259
 Maximum number of real-space cells 4x 4x 2
 Maximum number of reciprocal cells 2x 2x 5

--------------------------------------- Iteration      1(   1)  ---------------------------------------

 eigenvalue-minimisations  : 36864
 total energy-change (2. order) : 0.1683356E+03  (-0.2396655E+04)
 number of electron      55.9999991 magnetization
 augmentation part       55.9999991 magnetization

 Free energy of the ion-electron system (eV)
  alpha Z        PSCENC =        60.47074313
  Ewald energy   TEWEN  =      4495.95153103
  -Hartree energ DENC   =     -6105.97160522
  -exchange      EXHF   =         0.00000000
  -V(xc)+E(xc)   XCENC  =       168.42621274
  PAW double counting   =      5765.87674027    -5765.24031214
  entropy T*S    EENTRO =        -0.01940429
  eigenvalues    EBANDS =      -197.66382524
  atomic energy  EATOM  =      1746.50554237
  Solvation  Ediel_sol  =         0.00000000
  free energy    TOTEN  =       168.33562264 eV

  energy without entropy =      168.35502694  energy(sigma->0) =      168.34532479

[...]

 eigenvalue-minimisations  : 56496
 total energy-change (2. order) :-0.2815051E+03  (-0.2809676E+03)
 number of electron      55.9999991 magnetization
 augmentation part       55.9999991 magnetization

[...]

--------------------------------------- Iteration      1(   6)  ---------------------------------------

 eigenvalue-minimisations  : 58272
 total energy-change (2. order) :-0.7457493E-07  (-0.7455922E-07)
 number of electron      55.9999991 magnetization
 augmentation part       55.9999991 magnetization

 Free energy of the ion-electron system (eV)
  alpha Z        PSCENC =        60.47074313
  Ewald energy   TEWEN  =      4495.95153103
  -Hartree energ DENC   =     -6105.97160522
  -exchange      EXHF   =         0.00000000
  -V(xc)+E(xc)   XCENC  =       168.42621274
  PAW double counting   =      5765.87674027    -5765.24031214
  entropy T*S    EENTRO =        -0.01141252
  eigenvalues    EBANDS =      -488.68129566
  atomic energy  EATOM  =      1746.50554237
  Solvation  Ediel_sol  =         0.00000000
  free energy    TOTEN  =      -122.67385600 eV

  energy without entropy =     -122.66244348  energy(sigma->0) =     -122.66814974

 average (electrostatic) potential at core
  the test charge radii are     0.7672  0.6991
  (the norm of the test charge is              1.0000)
       1 -33.1604       2 -33.1605       3 -33.1605       4 -33.1604       5 -33.1605
       6 -33.1604       7 -34.5012       8 -34.5099       9 -55.9648      10 -55.9626
      11 -55.9648      12 -55.9671      13 -55.9667      14 -55.9625      15 -55.9648
      16 -55.9626

 E-fermi :  -0.3032     XC(G=0):  -5.2164     alpha+bet : -5.2469

 Fermi energy:        -0.3032101626

 k-point     1 :       0.0000    0.0000    0.0000
  band No.  band energies     occupation
      1     -19.7683      2.00000
      2     -15.8967      2.00000
      3     -14.6561      2.00000
      4     -14.6515      2.00000
      5     -14.6514      2.00000
      6     -13.5283      2.00000
      7     -13.5283      2.00000
      8     -13.5258      2.00000
      9     -11.7062      2.00000
     10     -11.5209      2.00000
     11     -11.5209      2.00000
     12      -9.3202      2.00000
     13      -9.3202      2.00000
     14      -8.0838      2.00000
     15      -7.3231      2.00000
     16      -6.8059      2.00000
     17      -6.8059      2.00000
     18      -6.8054      2.00000
     19      -6.5479      2.00000
     20      -3.5170      2.00000
     21      -3.5169      2.00000
     22      -2.8551      2.00000
     23      -2.8214      2.00000
     24      -2.8214      2.00000
     25      -1.5295      2.00000
     26      -1.5295      2.00000
     27      -0.3682      1.64198
     28      -0.3682      1.64193
     29      -0.2358      0.34067
     30       0.9498      0.00000
     31       0.9498      0.00000
     32       1.1278      0.00000
     33       1.1278      0.00000
     34       1.1305      0.00000
     35       1.7632      0.00000
     36       1.7632      0.00000
     37       2.9912      0.00000
     38       3.5977      0.00000
     39       4.4960      0.00000
     40       4.8100      0.00000
     41       6.6148      0.00000
     42       6.6176      0.00000
     43       6.6176      0.00000
     44       7.0712      0.00000
     45       7.6624      0.00000
     46       7.6637      0.00000
     47       7.6779      0.00000
     48       8.4068      0.00000

[...]

 k-point   384 :       0.0000    0.0000    0.0000
  band No.  band energies     occupation
      1     -19.7683      2.00000
      2     -15.8967      2.00000
      3     -14.6561      2.00000
      4     -14.6515      2.00000
      5     -14.6514      2.00000
      6     -13.5283      2.00000
      7     -13.5283      2.00000
      8     -13.5258      2.00000
      9     -11.7062      2.00000
     10     -11.5209      2.00000
     11     -11.5209      2.00000
     12      -9.3202      2.00000
     13      -9.3202      2.00000
     14      -8.0838      2.00000
     15      -7.3231      2.00000
     16      -6.8059      2.00000
     17      -6.8059      2.00000
     18      -6.8054      2.00000
     19      -6.5479      2.00000
     20      -3.5170      2.00000
     21      -3.5169      2.00000
     22      -2.8551      2.00000
     23      -2.8214      2.00000
     24      -2.8214      2.00000
     25      -1.5295      2.00000
     26      -1.5295      2.00000
     27      -0.3682      1.64198
     28      -0.3682      1.64193
     29      -0.2358      0.34067
     30       0.9498      0.00000
     31       0.9498      0.00000
     32       1.1278      0.00000
     33       1.1278      0.00000
     34       1.1305      0.00000
     35       1.7632      0.00000
     36       1.7632      0.00000
     37       2.9912      0.00000
     38       3.5977      0.00000
     39       4.4960      0.00000
     40       4.8100      0.00000
     41       6.6148      0.00000
     42       6.6176      0.00000
     43       6.6176      0.00000
     44       7.0712      0.00000
     45       7.6630      0.00000
     46       7.6638      0.00000
     47       7.6779      0.00000
     48       8.4059      0.00000

 soft charge-density along one line, spin component           1
         0         1         2         3         4         5         6         7         8         9
 total charge-density along one line

------------------------ aborting loop because EDIFF is reached ----------------------------------------

 total charge

# of ion       s       p       d       tot
    1        0.726   1.432   0.000   2.158
    2        0.726   1.432   0.000   2.158
    3        0.700   1.442   0.000   2.142
    4        0.699   1.443   0.000   2.142
    5        0.688   1.458   0.000   2.147
    6        0.688   1.459   0.000   2.147
    7        0.685   1.401   0.000   2.086
    8        0.686   1.400   0.000   2.086
    9        0.856   1.766   0.000   2.622
   10        0.856   1.770   0.000   2.626
   11        0.856   1.771   0.000   2.628
   12        0.856   1.769   0.000   2.625
   13        0.856   1.769   0.000   2.625
   14        0.856   1.770   0.000   2.626
   15        0.856   1.771   0.000   2.627
   16        0.856   1.768   0.000   2.624
tot         12.446  25.623   0.000  38.069

         DFTD3 V3.0 Rev 1
 IVDW         = 12
 DF pbe
 parameters
 VDW_S6       =    1.0000
 VDW_S8       =    0.7875
 VDW_A1       =    0.4289
 VDW_A2       =    4.4407
 k1-k3        =   16.0000    1.3333   -4.0000
 VDW_RADIUS   =   50.2022 A
 VDW_CNRADIUS =   21.1671 A
 Edisp (eV)   -1.86926

 E6    (eV) :    -1.2706
 E8    (eV) :    -0.5986
 % E8        : 32.02

  FORCE on cell =-STRESS in cart. coord.  units (eV):
  Direction    XX          YY          ZZ          XY          YZ          ZX
  Alpha Z    60.47074    60.47074    60.47074
  Ewald    6159.79023  6159.79504 -7823.63738     0.00000     0.00000    -0.00008
  Hartree  6053.72383  6056.39590 -5993.35859    -1.47321    -0.23119     0.12210
  E(xc)    -195.84755  -195.84424  -202.22561     0.00827    -0.00328     0.00143
  Local  -12763.99488-12766.49931 13149.22192     1.55413     0.33519    -0.17426
  n-local   -38.28136   -40.45162   -40.23054     1.17758    -0.02689    -0.01694
  augment    -2.82630    -2.87004    -2.52324     0.03070    -0.00151     0.00081
  Kinetic   736.29400   726.41949   855.21188     5.24449     0.35987    -0.21993
  Fock        0.00000     0.00000     0.00000     0.00000     0.00000     0.00000
  vdW        -1.34155    -1.34155    -1.33820    -0.00000     0.00000    -0.00000
  Total       7.98716    -3.92557     1.59099     6.54197     0.43220    -0.28688
  in kB      39.73715   -19.53025     7.91538    32.54717     2.15024    -1.42726

 VOLUME and BASIS-vectors are now :
  energy-cutoff  :      450.00
  volume of cell :      322.04
      direct lattice vectors                 reciprocal lattice vectors
     4.311940485  2.489500000  0.000000000     0.115957074  0.200843543  0.000000000
    -4.311940485  2.489500000  0.000000000    -0.115957074  0.200843543  0.000000000
     0.000000000  0.000000000 15.000000000     0.000000000  0.000000000  0.066666667

  length of vectors
     4.979000000  4.979000000 15.000000000     0.231914147  0.231914147  0.066666667

 FORCES acting on ions
    electron-ion (+dipol)            ewald-force                    non-local-force                 convergence-correction
   -.260E+02 -.150E+02 0.217E+03   0.288E+02 0.166E+02 -.216E+03   -.258E+01 -.136E+01 -.840E-01   0.189E+00 0.162E+00 -.654E+00
   0.259E+02 0.150E+02 0.216E+03   -.287E+02 -.166E+02 -.216E+03   0.258E+01 0.136E+01 0.344E-01   -.196E+00 -.150E+00 -.614E+00
   -.268E+02 0.141E+02 0.217E+03   0.288E+02 -.166E+02 -.216E+03   -.330E+01 0.131E+01 -.456E+00   0.240E+00 0.326E+00 -.844E+00
   0.268E+02 -.141E+02 0.216E+03   -.287E+02 0.166E+02 -.216E+03   0.330E+01 -.131E+01 0.422E+00   -.225E+00 -.325E+00 -.433E+00
   0.126E+01 0.306E+02 0.217E+03   -.365E-01 -.332E+02 -.216E+03   0.401E+00 0.346E+01 -.399E+00   -.442E+00 -.184E+00 -.823E+00
   -.116E+01 -.306E+02 0.216E+03   -.365E-01 0.332E+02 -.216E+03   -.400E+00 -.345E+01 0.360E+00   0.432E+00 0.173E+00 -.452E+00
   0.338E+00 -.887E+00 0.254E+03   0.206E-03 0.308E-03 -.255E+03   0.279E+00 -.326E+00 0.105E+01   -.139E+00 0.448E+00 -.434E+00
   -.355E+00 0.906E+00 0.179E+03   -.206E-03 0.308E-03 -.177E+03   -.273E+00 0.321E+00 -.108E+01   0.147E+00 -.459E+00 -.840E+00
   -.227E+01 0.259E+01 -.215E+03   0.671E+00 -.116E+01 0.216E+03   0.260E+00 -.389E+00 -.580E-01   0.382E+00 -.341E+00 -.729E+00
   0.220E+01 -.872E+00 -.214E+03   -.371E+00 -.642E+00 0.215E+03   -.259E+00 0.410E+00 0.489E-01   -.556E+00 0.397E+00 -.691E+00
   -.276E+00 0.157E+01 -.216E+03   -.134E+01 -.328E-05 0.216E+03   0.284E+00 -.402E+00 0.451E-01   0.374E+00 -.448E+00 -.710E+00
   0.151E+01 -.125E+01 -.217E+03   -.498E-03 0.354E-05 0.218E+03   -.269E+00 0.408E+00 -.220E-01   -.311E+00 0.199E+00 -.687E+00
   -.159E+01 0.133E+01 -.215E+03   0.500E-03 0.355E-05 0.216E+03   0.266E+00 -.406E+00 0.139E-01   0.366E+00 -.248E+00 -.716E+00
   0.850E+00 -.164E+01 -.214E+03   0.741E+00 -.329E-05 0.215E+03   -.277E+00 0.400E+00 0.348E-01   -.368E+00 0.497E+00 -.689E+00
   -.241E+01 0.305E+00 -.216E+03   0.671E+00 0.116E+01 0.216E+03   0.257E+00 -.419E+00 0.392E-01   0.498E+00 -.355E+00 -.703E+00
   0.198E+01 -.202E+01 -.214E+03   -.371E+00 0.642E+00 0.215E+03   -.265E+00 0.399E+00 -.331E-02   -.383E+00 0.298E+00 -.794E+00
   -.157E-01 0.162E-01 0.109E+02   -.160E-13 -.103E-13 0.171E-12   0.836E-02 -.568E-02 -.487E-01   0.693E-02 -.101E-01 -.108E+02

 POSITION                                       TOTAL-FORCE (eV/Angst)
      2.88252      1.66438      1.52236         0.443269      0.405626      0.025475
      1.42928      0.82535      1.52236        -0.438178     -0.413805     -0.020983
      2.88253      3.31461      1.52236        -1.100795     -0.885188      0.285165
      1.42928      4.15365      1.52236         1.086690      0.876477     -0.238811
      0.00014      1.65047      1.52236         1.186371      0.676490      0.253726
      0.00014      3.32853      1.52236        -1.164072     -0.668340     -0.223637
      1.43731      2.48950      1.32683         0.476963     -0.764738     -0.398904
     -1.43731      2.48950      1.71636        -0.481045      0.768534      0.407670
     -0.71860      1.24465      5.01853        -0.957220      0.696606     -0.056705
      0.71865      1.24474      5.01699         1.017683     -0.705273      0.003292
     -2.87474      2.48950      5.01853        -0.958633      0.717323      0.012868
     -1.43731      2.48950      5.01939         0.930892     -0.643170     -0.012381
      1.43731      2.48950      5.01667        -0.960944      0.671732     -0.003600
      2.87464      2.48950      5.01699         0.945677     -0.744348     -0.011420
     -0.71860      3.73434      5.01853        -0.984199      0.691322      0.011910
      0.71865      3.73426      5.01699         0.957539     -0.679247     -0.033666
    total drift:                               -0.000364      0.000486      0.039699

  FREE ENERGIE OF THE ION-ELECTRON SYSTEM (eV)
  free  energy   TOTEN  =      -124.54311823 eV

  energy  without entropy=     -124.53170572  energy(sigma->0) =     -124.53741197

 stress matrix after NEB project (eV)
      7.98716      6.54197     -0.28688
      6.54197     -3.92557      0.43220
     -0.28688      0.43220      1.59099
  FORCES: max atom, RMS     1.441051    1.168605
  FORCE total and by dimension    4.674421    1.186371
  Stress total and by dimension   12.956431    7.987157
 writing wavefunctions

 total charge

# of ion       s       p       d       tot
    1        0.726   1.432   0.000   2.158
    2        0.726   1.432   0.000   2.158
    3        0.700   1.442   0.000   2.142
    4        0.699   1.443   0.000   2.142
    5        0.688   1.458   0.000   2.147
    6        0.688   1.459   0.000   2.147
    7        0.685   1.401   0.000   2.086
    8        0.686   1.400   0.000   2.086
    9        0.856   1.766   0.000   2.622
   10        0.856   1.770   0.000   2.626
   11        0.856   1.771   0.000   2.628
   12        0.856   1.769   0.000   2.625
   13        0.856   1.769   0.000   2.625
   14        0.856   1.770   0.000   2.626
   15        0.856   1.771   0.000   2.627
   16        0.856   1.768   0.000   2.624
tot         12.446  25.623   0.000  38.069