 vasp.6.3.2 27Jun22 (build Dec 22 2022 13:13:19) complex

 executed on             LinuxIFC date 2023.11.04  09:29:57

 INCAR:
   SYSTEM = Lattice
   ISTART = 0
   ICHARG = 2
   PREC = Accurate
   ENCUT = 450
   LCHARG = .FALSE.
   LWAVE = .FALSE.
   ALGO = Normal
   NELM = 64
   EDIFF = 1E-6
   EDIFFG = -1E-3
   SIGMA = 0.1
   ISMEAR = 0
   ISPIN = 1
   NSW = 256
   IBRION = 2
   POTIM = .5
   ISIF = 2
   GGA = PE
   IVDW = 12

 POTCAR:    PAW_PBE B 06Sep2000
 POTCAR:    PAW_PBE B 06Sep2000
   VRHFIN =B: s2p1

   TITEL  = PAW_PBE B 06Sep2000
   POMASS =   10.811; ZVAL   =    3.000    mass and valenz
   ENMAX  =  318.614; ENMIN  =  238.960 eV

  PAW_PBE B 06Sep2000                   :

 POSCAR: Borophene with lattice parameter 5.051
  positions in direct lattice
  velocities in cartesian coordinates
 exchange correlation table for  LEXCH =        8
   RHO(1)=    0.500       N(1)  =     2000
   RHO(2)=  100.500       N(2)  =     4000

 VTST: version 4.2, (08/11/21)

 CHAIN: initializing optimizer

 OPT: Using VASP Conjugate-Gradient optimizer
 CHAIN: Read ICHAIN            0

 POSCAR: Borophene with lattice parameter 5.051
  positions in direct lattice
  velocities in cartesian coordinates

 ion  position               nearest neighbor table
   1  0.669  0.000  0.100-   3 1.67   6 1.67   7 1.69   8 1.69   2 1.71
   2  0.331  0.000  0.100-   5 1.67   4 1.67   7 1.69   8 1.69   1 1.71
   3  0.000  0.331  0.100-   5 1.67   1 1.67   8 1.69   7 1.69   4 1.71
   4  0.000  0.669  0.100-   2 1.67   6 1.67   8 1.69   7 1.69   3 1.71
   5  0.331  0.331  0.100-   2 1.67   3 1.67   7 1.69   8 1.69   6 1.71
   6  0.669  0.669  0.100-   1 1.67   4 1.67   7 1.69   8 1.69   5 1.71
   7  0.667  0.333  0.102-   1 1.69   5 1.69   6 1.69   2 1.69   4 1.69   3 1.69
   8  0.333  0.667  0.098-   4 1.69   5 1.69   6 1.69   3 1.69   1 1.69   2 1.69

  LATTYP: Found a hexagonal cell.
 ALAT       =     5.0509997276
 C/A-ratio  =     2.9697091287

  Lattice vectors:

 A1 = (   4.3742940000,   2.5255000000,   0.0000000000)
 A2 = (  -4.3742940000,   2.5255000000,   0.0000000000)
 A3 = (   0.0000000000,   0.0000000000,  15.0000000000)

Analysis of symmetry for initial positions (statically):
 Subroutine PRICEL returns:
 Original cell was already a primitive cell.

 Routine SETGRP: Setting up the symmetry group for a
 hexagonal supercell.

 Subroutine GETGRP returns: Found 12 space group operations
 (whereof  6 operations were pure point group operations)
 out of a pool of 24 trial point group operations.

The static configuration has the point symmetry C_3v.
 The point group associated with its full space group is D_3d.

Analysis of symmetry for dynamics (positions and initial velocities):
 Subroutine PRICEL returns:
 Original cell was already a primitive cell.

 Routine SETGRP: Setting up the symmetry group for a
 hexagonal supercell.

 Subroutine GETGRP returns: Found 12 space group operations
 (whereof  6 operations were pure point group operations)
 out of a pool of 24 trial point group operations.

The dynamic configuration has the point symmetry C_3v.
 The point group associated with its full space group is D_3d.

 Subroutine INISYM returns: Found 12 space group operations
 (whereof  6 operations are pure point group operations),
 and found     1 'primitive' translations

                                     Primitive cell

  volume of cell :     331.4184

  direct lattice vectors                    reciprocal lattice vectors
     4.374294000  2.525500000  0.000000000     0.114304160  0.197980598  0.000000000
    -4.374294000  2.525500000  0.000000000    -0.114304160  0.197980598  0.000000000
     0.000000000  0.000000000 15.000000000     0.000000000  0.000000000  0.066666667

  length of vectors
     5.050999728  5.050999728 15.000000000     0.228608307  0.228608307  0.066666667

  position of ions in fractional coordinates (direct lattice)
     0.668796805  1.000000000  0.100000000
     0.331202195  1.000000000  0.100000000
     1.000000000  0.331202195  0.100000000
     1.000000000  0.668796805  0.100000000
     0.331202195  0.331202195  0.100000000
     0.668796805  0.668796805  0.100000000
     0.666666000  0.333333000  0.101536445
     0.333333000  0.666666000  0.098463555

  ion indices of the primitive-cell ions
   primitive index   ion index
                 1           1
                 2           2
                 3           3
                 4           4
                 5           5
                 6           6
                 7           7
                 8           8

 KPOINTS: k-points

Automatic generation of k-mesh.
 Grid dimensions read from file:
 generate k-points for:   17   17    1

 Generating k-lattice:

  Cartesian coordinates                     Fractional coordinates (reciprocal lattice)
     0.006723774  0.011645918  0.000000000     0.058823529 -0.000000000  0.000000000
    -0.006723774  0.011645918  0.000000000    -0.000000000  0.058823529  0.000000000
     0.000000000  0.000000000  0.066666667     0.000000000  0.000000000  1.000000000

  Length of vectors
     0.013447547  0.013447547  0.066666667

  Shift w.r.t. Gamma in fractional coordinates (k-lattice)
     0.000000000  0.000000000  0.000000000

 Subroutine IBZKPT returns following result:

 Found     33 irreducible k-points:

 Following reciprocal coordinates:
            Coordinates               Weight
  0.000000  0.000000  0.000000      1.000000
  0.058824  0.000000  0.000000      6.000000
  0.117647  0.000000  0.000000      6.000000
  0.176471  0.000000  0.000000      6.000000
  0.235294  0.000000  0.000000      6.000000
  0.294118  0.000000  0.000000      6.000000
  0.352941  0.000000  0.000000      6.000000
  0.411765  0.000000  0.000000      6.000000
  0.470588  0.000000  0.000000      6.000000
  0.058824  0.058824  0.000000      6.000000
  0.117647  0.058824  0.000000     12.000000
  0.176471  0.058824  0.000000     12.000000
  0.235294  0.058824  0.000000     12.000000
  0.294118  0.058824  0.000000     12.000000
  0.352941  0.058824  0.000000     12.000000
  0.411765  0.058824  0.000000     12.000000
  0.470588  0.058824  0.000000      6.000000
  0.117647  0.117647  0.000000      6.000000
  0.176471  0.117647  0.000000     12.000000
  0.235294  0.117647  0.000000     12.000000
  0.294118  0.117647  0.000000     12.000000
  0.352941  0.117647  0.000000     12.000000
  0.411765  0.117647  0.000000     12.000000
  0.176471  0.176471  0.000000      6.000000
  0.235294  0.176471  0.000000     12.000000
  0.294118  0.176471  0.000000     12.000000
  0.352941  0.176471  0.000000     12.000000
  0.411765  0.176471  0.000000      6.000000
  0.235294  0.235294  0.000000      6.000000
  0.294118  0.235294  0.000000     12.000000
  0.352941  0.235294  0.000000     12.000000
  0.294118  0.294118  0.000000      6.000000
  0.352941  0.294118  0.000000      6.000000

 Following cartesian coordinates:
            Coordinates               Weight
  0.000000  0.000000  0.000000      1.000000
  0.006724  0.011646  0.000000      6.000000
  0.013448  0.023292  0.000000      6.000000
  0.020171  0.034938  0.000000      6.000000
  0.026895  0.046584  0.000000      6.000000
  0.033619  0.058230  0.000000      6.000000
  0.040343  0.069876  0.000000      6.000000
  0.047066  0.081521  0.000000      6.000000
  0.053790  0.093167  0.000000      6.000000
 -0.000000  0.023292  0.000000      6.000000
  0.006724  0.034938  0.000000     12.000000
  0.013448  0.046584  0.000000     12.000000
  0.020171  0.058230  0.000000     12.000000
  0.026895  0.069876  0.000000     12.000000
  0.033619  0.081521  0.000000     12.000000
  0.040343  0.093167  0.000000     12.000000
  0.047066  0.104813  0.000000      6.000000
 -0.000000  0.046584  0.000000      6.000000
  0.006724  0.058230  0.000000     12.000000
  0.013448  0.069876  0.000000     12.000000
  0.020171  0.081521  0.000000     12.000000
  0.026895  0.093167  0.000000     12.000000
  0.033619  0.104813  0.000000     12.000000
 -0.000000  0.069876  0.000000      6.000000
  0.006724  0.081521  0.000000     12.000000
  0.013448  0.093167  0.000000     12.000000
  0.020171  0.104813  0.000000     12.000000
  0.026895  0.116459  0.000000      6.000000
 -0.000000  0.093167  0.000000      6.000000
  0.006724  0.104813  0.000000     12.000000
  0.013448  0.116459  0.000000     12.000000
  0.000000  0.116459  0.000000      6.000000
  0.006724  0.128105  0.000000      6.000000

 SYSTEM =  Lattice
 POSCAR =  Borophene with lattice parameter 5.051

 Startparameter for this run:
   NWRITE =      2    write-flag & timer
   PREC   = accura    normal or accurate (medium, high low for compatibility)
   ISTART =      0    job   : 0-new  1-cont  2-samecut
   ICHARG =      2    charge: 1-file 2-atom 10-const
   ISPIN  =      1    spin polarized calculation?
   LNONCOLLINEAR =      F non collinear calculations
   LSORBIT =      F    spin-orbit coupling
   INIWAV =      1    electr: 0-lowe 1-rand  2-diag
   LASPH  =      F    aspherical Exc in radial PAW
 Electronic Relaxation 1
   ENCUT  =  450.0 eV  33.07 Ry    5.75 a.u.   8.74  8.74 25.95*2*pi/ulx,y,z
   ENINI  =  450.0     initial cutoff
   ENAUG  =  535.5 eV  augmentation charge cutoff
   NELM   =     64;   NELMIN=  2; NELMDL= -5     # of ELM steps
   EDIFF  = 0.1E-05   stopping-criterion for ELM
   LREAL  =      F    real-space projection
   NLSPLINE    = F    spline interpolate recip. space projectors
   LCOMPAT=      F    compatible to vasp.4.4
   GGA_COMPAT  = T    GGA compatible to vasp.4.4-vasp.4.6
   LMAXPAW     = -100 max onsite density
   LMAXMIX     =    2 max onsite mixed and CHGCAR
   VOSKOWN=      0    Vosko Wilk Nusair interpolation
   ROPT   =    0.00000
 Ionic relaxation
   EDIFFG = -.1E-02   stopping-criterion for IOM
   NSW    =    256    number of steps for IOM
   NBLOCK =      1;   KBLOCK =    256    inner block; outer block
   IBRION =      2    ionic relax: 0-MD 1-quasi-New 2-CG
   NFREE  =      1    steps in history (QN), initial steepest desc. (CG)
   ISIF   =      2    stress and relaxation
   IWAVPR =     11    prediction:  0-non 1-charg 2-wave 3-comb
   ISYM   =      2    0-nonsym 1-usesym 2-fastsym
   LCORR  =      T    Harris-Foulkes like correction to forces

   POTIM  = 0.5000    time-step for ionic-motion
   TEIN   =    0.0    initial temperature
   TEBEG  =    0.0;   TEEND  =   0.0 temperature during run
   SMASS  =  -3.00    Nose mass-parameter (am)
   estimated Nose-frequenzy (Omega)   =  0.10E-29 period in steps = 0.13E+47 mass=  -0.583E-27a.u.
   SCALEE = 1.0000    scale energy and forces
   NPACO  =    256;   APACO  = 10.0  distance and # of slots for P.C.
   PSTRESS=    0.0 pullay stress

  Mass of Ions in am
   POMASS =  10.81
  Ionic Valenz
   ZVAL   =   3.00
  Atomic Wigner-Seitz radii
  virtual crystal weights
   VCA    =   1.00
   NELECT =      24.0000    total number of electrons
   NUPDOWN=      -1.0000    fix difference up-down

 DOS related values:
   EMIN   =  10.00;   EMAX   =-10.00  energy-range for DOS
   EFERMI =   0.00
   ISMEAR =     0;   SIGMA  =   0.10  broadening in eV -4-tet -1-fermi 0-gaus

 Electronic relaxation 2 (details)
   IALGO  =     38    algorithm
[...]
 number of electron      24.0000000 magnetization
 augmentation part       24.0000000 magnetization

[...]

 Broyden mixing:
  rms(total) = 0.93882E+00    rms(broyden)= 0.93872E+00
  rms(prec ) = 0.11116E+01
  weight for this iteration     100.00

[...]

 eigenvalues of (default mixing * dielectric matrix)
  average eigenvalue GAMMA=   2.2421
  2.2421

[...]

 average (electrostatic) potential at core
  the test charge radii are     0.7672
  (the norm of the test charge is              1.0000)
       1 -35.4985       2 -35.4985       3 -35.4985       4 -35.4985       5 -35.4986
       6 -35.4985       7 -36.7161       8 -36.7161

 E-fermi :  -2.2212     XC(G=0):  -2.9204     alpha+bet : -2.6791

 Fermi energy:        -2.2212009506

 k-point     1 :       0.0000    0.0000    0.0000
  band No.  band energies     occupation
      1     -17.8895      2.00000
      2     -13.7344      2.00000
      3     -13.6493      2.00000
      4     -13.6492      2.00000
      5     -11.4808      2.00000
      6     -11.4808      2.00000
      7      -9.4062      2.00000
      8      -8.7301      2.00000
      9      -3.8254      2.00000
     10      -3.8254      2.00000
     11      -2.3005      1.73761
     12      -1.7779      0.00000
     13      -1.7779      0.00000
     14      -1.4687      0.00000
     15      -1.4687      0.00000
     16      -1.2505      0.00000
     17      -1.2505      0.00000
     18       0.7833      0.00000
     19       1.6287      0.00000
     20       2.3781      0.00000
     21       2.5197      0.00000
     22       4.3976      0.00000
     23       4.9479      0.00000
     24       5.7098      0.00000
     25       6.3527      0.00000
     26       6.3528      0.00000
     27       6.5895      0.00000
     28       7.5306      0.00000
     29       7.5306      0.00000
     30       8.0526      0.00000
     31       8.3543      0.00000
     32       8.6134      0.00000
     33       9.0073      0.00000
     34       9.0959      0.00000
     35       9.3162      0.00000
     36       9.3675      0.00000
     37       9.3675      0.00000
     38       9.3912      0.00000
     39       9.4346      0.00000
     40       9.4346      0.00000
     41       9.5036      0.00000
     42       9.5342      0.00000
     43       9.5342      0.00000
     44       9.5712      0.00000
     45       9.5712      0.00000
     46      10.3383      0.00000
     47      10.3457      0.00000
     48      10.4161      0.00000

[...]

 soft charge-density along one line, spin component           1
         0         1         2         3         4         5         6         7         8         9
 total charge-density along one line

------------------------ aborting loop because EDIFF is reached ----------------------------------------

         DFTD3 V3.0 Rev 1
 IVDW         = 12
 DF pbe
 parameters
 VDW_S6       =    1.0000
 VDW_S8       =    0.7875
 VDW_A1       =    0.4289
 VDW_A2       =    4.4407
 k1-k3        =   16.0000    1.3333   -4.0000
 VDW_RADIUS   =   50.2022 A
 VDW_CNRADIUS =   21.1671 A
 Edisp (eV)   -0.66725

 E6    (eV) :    -0.4278
 E8    (eV) :    -0.2394
 % E8        : 35.88

  FORCE on cell =-STRESS in cart. coord.  units (eV):
  Direction    XX          YY          ZZ          XY          YZ          ZX
  Alpha Z    13.28498    13.28498    13.28498
  Ewald    2352.47920  2352.47903 -2948.09412    -0.00000     0.00000     0.00001
  Hartree  2203.86419  2203.86419 -2189.90517    -0.00000    -0.00000     0.00000
  E(xc)     -76.71700   -76.71700   -79.23555    -0.00000    -0.00000     0.00000
  Local   -4727.73331 -4727.73320  4910.24735     0.00000     0.00000    -0.00000
  n-local    -8.29381   -11.69770   -13.91214    -1.65851    -0.00858     0.00303
  augment     0.24343     0.24343     0.30015    -0.00000    -0.00000    -0.00000
  Kinetic   240.72968   249.90062   307.30217     3.10394     0.05047     0.02100
  Fock        0.00000     0.00000     0.00000     0.00000     0.00000     0.00000
  vdW        -0.69872    -0.69872    -0.00667     0.00000    -0.00000     0.00000
  Total       0.04214     0.04214    -0.01901    -0.00000     0.00000    -0.00000
  in kB       0.20372     0.20372    -0.09188    -0.00000     0.00000    -0.00000

 VOLUME and BASIS-vectors are now :
  energy-cutoff  :      450.00
  volume of cell :      331.42
      direct lattice vectors                 reciprocal lattice vectors
     4.374294000  2.525500000  0.000000000     0.114304160  0.197980598  0.000000000
    -4.374294000  2.525500000  0.000000000    -0.114304160  0.197980598  0.000000000
     0.000000000  0.000000000 15.000000000     0.000000000  0.000000000  0.066666667

[...]

 FORCES acting on ions
    electron-ion (+dipol)            ewald-force                    non-local-force                 convergence-correction
   -.257E+02 -.148E+02 0.143E-05   0.284E+02 0.164E+02 -.268E-05   -.277E+01 -.160E+01 -.183E-18   0.787E-06 0.454E-06 -.149E-09
   0.257E+02 0.148E+02 0.135E-05   -.284E+02 -.164E+02 -.509E-05   0.277E+01 0.160E+01 0.197E-18   -.786E-06 -.455E-06 -.156E-09
   -.257E+02 0.148E+02 0.145E-05   0.284E+02 -.164E+02 0.509E-05   -.277E+01 0.160E+01 0.000E+00   0.786E-06 -.455E-06 -.145E-09
   0.257E+02 -.148E+02 0.134E-05   -.284E+02 0.164E+02 0.268E-05   0.277E+01 -.160E+01 -.271E-19   -.787E-06 0.454E-06 -.153E-09
   0.120E-07 0.296E+02 0.136E-05   -.284E-13 -.328E+02 -.300E-14   -.134E-16 0.320E+01 -.461E-18   0.260E-11 -.908E-06 -.151E-09
   0.151E-07 -.296E+02 0.137E-05   -.355E-14 0.328E+02 -.322E-14   0.777E-17 -.320E+01 0.244E-18   0.260E-11 0.909E-06 -.151E-09
   0.439E-04 0.783E-04 -.553E+01   0.211E-03 0.309E-03 0.571E+01   0.738E-17 -.449E-17 -.174E+00   0.266E-09 0.449E-09 0.660E-06
   -.439E-04 0.784E-04 0.553E+01   -.211E-03 0.309E-03 -.571E+01   -.870E-17 0.630E-17 0.174E+00   -.266E-09 0.449E-09 -.661E-06
   0.691E-08 0.910E-03 0.781E-05   -.373E-14 -.679E-14 0.000E+00   0.266E-14 -.442E-15 0.555E-16   0.212E-13 0.796E-09 -.121E-08

 POSITION                                       TOTAL-FORCE (eV/Angst)
      2.92551      1.68905      1.50000        -0.005078     -0.002932     -0.000000
      1.44878      0.83645      1.50000         0.005078      0.002932     -0.000000
     -1.44878      0.83645      1.50000        -0.005078      0.002932     -0.000000
     -2.92551      1.68905      1.50000         0.005078     -0.002932     -0.000000
      0.00000      1.67290      1.50000         0.000000      0.005864     -0.000000
     -0.00000      3.37809      1.50000        -0.000000     -0.005864     -0.000000
      1.45810      2.52550      1.52305        -0.000000      0.000000     -0.000754
     -1.45810      2.52550      1.47695        -0.000000      0.000000      0.000754
    total drift:                                0.000000      0.000910      0.000008

  FREE ENERGIE OF THE ION-ELECTRON SYSTEM (eV)
  free  energy   TOTEN  =       -51.13646066 eV

  energy  without entropy=      -51.13148525  energy(sigma->0) =      -51.13397296

 stress matrix after NEB project (eV)
      0.04214      0.00000     -0.00000
     -0.00000      0.04214      0.00000
      0.00000      0.00000     -0.01901
  FORCES: max atom, RMS     0.005864    0.005092
  FORCE total and by dimension    0.014403    0.005864
  Stress total and by dimension    0.062553    0.042141

[...]

 eigenvalue-minimisations  :  3792
 total energy-change (2. order) :-0.1283185E-04  (-0.7262449E-04)
 number of electron      24.0000000 magnetization
 augmentation part       -0.0340688 magnetization

[...]

 eigenvalues of (default mixing * dielectric matrix)
  average eigenvalue GAMMA=   1.5906
  1.5906

[...]

         DFTD3 V3.0 Rev 1
 Edisp (eV)   -0.66725

[...]

 d Force = 0.1737044E-05[-0.653E-05, 0.100E-04]  d Energy = 0.1888105E-05-0.151E-06
 d Force =-0.5620048E-01[-0.563E-01,-0.561E-01]  d Ewald  =-0.5620048E-01-0.793E-09

 stress matrix after NEB project (eV)
      0.05181      0.00000      0.00000
     -0.00000      0.05181      0.00000
      0.00000      0.00000     -0.01747
  FORCES: max atom, RMS     0.003874    0.003367
  FORCE total and by dimension    0.009524    0.003874
  Stress total and by dimension    0.075319    0.051806
 Steepest descent step on ions:
 trial-energy change:   -0.000002  1 .order   -0.000002   -0.000010    0.000007
  (g-gl).g = 0.100E-04      g.g   = 0.100E-04  gl.gl    = 0.000E+00
 g(Force)  = 0.100E-04   g(Stress)= 0.000E+00 ortho     = 0.000E+00
 gamma     =   0.00000
 trial     =   1.00000
 opt step  =   0.60501  (harmonic =   0.60501) maximal distance =0.00017115
 next E    =   -51.136464   (d E  =  -0.00000)

[...]

 Broyden mixing:
  rms(total) = 0.34282E-03    rms(broyden)= 0.34268E-03
  rms(prec ) = 0.43433E-03
  weight for this iteration     100.00

[...]

--------------------------------------- Iteration      3(   2)  ---------------------------------------

 eigenvalue-minimisations  :  4800
 total energy-change (2. order) : 0.6113567E-06  (-0.2283214E-06)
 number of electron      24.0000000 magnetization
 augmentation part       -0.0340907 magnetization

 Free energy of the ion-electron system (eV)
  alpha Z        PSCENC =        13.28497877
  Ewald energy   TEWEN  =      1756.89896151
  -Hartree energ DENC   =     -2217.85584126
  -exchange      EXHF   =         0.00000000
  -V(xc)+E(xc)   XCENC  =        58.09734126
  PAW double counting   =      2367.20204715    -2361.09554187
  entropy T*S    EENTRO =        -0.00496326
  eigenvalues    EBANDS =      -236.34671134
  atomic energy  EATOM  =       569.35051449
  Solvation  Ediel_sol  =         0.00000000
  free energy    TOTEN  =       -50.46921456 eV

  energy without entropy =      -50.46425130  energy(sigma->0) =      -50.46673293

 average (electrostatic) potential at core
  the test charge radii are     0.7672
  (the norm of the test charge is              1.0000)
       1 -35.4982       2 -35.4983       3 -35.4983       4 -35.4982       5 -35.4984
       6 -35.4982       7 -36.7159       8 -36.7159

 E-fermi :  -2.2207     XC(G=0):  -2.9224     alpha+bet : -2.6791

 Fermi energy:        -2.2207408967

[...]

 k-point    33 :       0.3529    0.2941    0.0000
  band No.  band energies     occupation
      1     -16.7369      2.00000
      2     -16.5549      2.00000
      3     -14.6255      2.00000
      4     -11.2815      2.00000
      5     -10.9850      2.00000
      6      -9.6719      2.00000
      7      -9.5769      2.00000
      8      -6.8991      2.00000
      9      -6.6302      2.00000
     10      -6.2169      2.00000
     11      -6.0893      2.00000
     12      -4.7790      2.00000
     13       0.4267      0.00000
     14       1.0313      0.00000
     15       1.1812      0.00000
     16       1.3348      0.00000
     17       2.0965      0.00000
     18       2.3221      0.00000
     19       2.9995      0.00000
     20       3.1694      0.00000
     21       3.6577      0.00000
     22       4.2035      0.00000
     23       4.2792      0.00000
     24       4.7066      0.00000
     25       4.7804      0.00000
     26       4.8453      0.00000
     27       5.1502      0.00000
     28       5.1600      0.00000
     29       5.2389      0.00000
     30       5.2953      0.00000
     31       6.7418      0.00000
     32       6.7734      0.00000
     33       7.0634      0.00000
     34       7.1765      0.00000
     35       7.2107      0.00000
     36       7.4172      0.00000
     37       7.7033      0.00000
     38       7.8141      0.00000
     39       9.3630      0.00000
     40       9.7504      0.00000
     41      10.1361      0.00000
     42      10.3214      0.00000
     43      10.7354      0.00000
     44      11.0251      0.00000
     45      11.3810      0.00000
     46      11.4086      0.00000
     47      11.5112      0.00000
     48      11.8248      0.00000

 soft charge-density along one line, spin component           1
         0         1         2         3         4         5         6         7         8         9
 total charge-density along one line

------------------------ aborting loop because EDIFF is reached ----------------------------------------

         DFTD3 V3.0 Rev 1
 Edisp (eV)   -0.66725

 E6    (eV) :    -0.4278
 E8    (eV) :    -0.2394
 % E8        : 35.88

  FORCE on cell =-STRESS in cart. coord.  units (eV):
  Direction    XX          YY          ZZ          XY          YZ          ZX
  Alpha Z    13.28498    13.28498    13.28498
  Ewald    2352.49646  2352.49629 -2948.09464    -0.00000     0.00000     0.00001
  Hartree  2203.87527  2203.87527 -2189.89901    -0.00000    -0.00000     0.00000
  E(xc)     -76.71826   -76.71826   -79.23678    -0.00000    -0.00000    -0.00000
  Local   -4727.75860 -4727.75849  4910.23756     0.00000     0.00000    -0.00000
  n-local    -8.29706   -11.70077   -13.91508    -1.65837    -0.00855     0.00304
  augment     0.24322     0.24322     0.29995    -0.00000     0.00000     0.00000
  Kinetic   240.74084   249.90495   307.30820     3.10197     0.05041     0.02093
  Fock        0.00000     0.00000     0.00000     0.00000     0.00000     0.00000
  vdW        -0.69873    -0.69873    -0.00667    -0.00000     0.00000     0.00000
  Total       0.04829     0.04829    -0.02149    -0.00000     0.00000     0.00000
  in kB       0.23343     0.23343    -0.10390    -0.00000     0.00000     0.00000

 VOLUME and BASIS-vectors are now :
  energy-cutoff  :      450.00
  volume of cell :      331.42
      direct lattice vectors                 reciprocal lattice vectors
     4.374294000  2.525500000  0.000000000     0.114304160  0.197980598  0.000000000
    -4.374294000  2.525500000  0.000000000    -0.114304160  0.197980598  0.000000000
     0.000000000  0.000000000 15.000000000     0.000000000  0.000000000  0.066666667

  length of vectors
     5.050999728  5.050999728 15.000000000     0.228608307  0.228608307  0.066666667

 FORCES acting on ions
    electron-ion (+dipol)            ewald-force                    non-local-force                 convergence-correction
   -.257E+02 -.148E+02 0.143E-05   0.285E+02 0.164E+02 -.268E-05   -.276E+01 -.160E+01 -.312E-18   -.152E-02 -.878E-03 0.242E-09
   0.257E+02 0.148E+02 0.135E-05   -.285E+02 -.164E+02 -.509E-05   0.276E+01 0.160E+01 0.434E-18   0.152E-02 0.878E-03 0.242E-09
   -.257E+02 0.148E+02 0.145E-05   0.285E+02 -.164E+02 0.509E-05   -.276E+01 0.160E+01 -.298E-18   -.152E-02 0.878E-03 -.177E-09
   0.257E+02 -.148E+02 0.134E-05   -.285E+02 0.164E+02 0.268E-05   0.276E+01 -.160E+01 -.271E-19   0.152E-02 -.878E-03 -.176E-09
   0.120E-07 0.297E+02 0.136E-05   0.227E-12 -.329E+02 -.627E-11   -.290E-16 0.319E+01 -.244E-18   -.235E-10 0.176E-02 0.318E-10
   0.151E-07 -.297E+02 0.137E-05   0.192E-12 0.329E+02 -.627E-11   0.363E-16 -.319E+01 0.298E-18   -.234E-10 -.176E-02 0.318E-10
   0.439E-04 0.784E-04 -.553E+01   0.211E-03 0.309E-03 0.570E+01   -.266E-17 0.361E-17 -.174E+00   -.203E-08 0.703E-08 -.893E-04
   -.439E-04 0.784E-04 0.553E+01   -.211E-03 0.309E-03 -.570E+01   0.112E-17 -.733E-17 0.174E+00   0.203E-08 0.703E-08 0.893E-04
   0.685E-08 0.911E-03 0.781E-05   -.173E-15 -.103E-13 0.000E+00   0.134E-14 0.133E-14 0.555E-16   0.252E-12 0.131E-07 0.236E-09

 POSITION                                       TOTAL-FORCE (eV/Angst)
      2.92537      1.68896      1.50000         0.000607      0.000350     -0.000000
      1.44892      0.83654      1.50000        -0.000607     -0.000350     -0.000000
     -1.44892      0.83654      1.50000         0.000607     -0.000350     -0.000000
     -2.92537      1.68896      1.50000        -0.000607      0.000350     -0.000000
     -0.00000      1.67307      1.50000         0.000000     -0.000701     -0.000000
     -0.00000      3.37792      1.50000         0.000000      0.000701     -0.000000
      1.45810      2.52550      1.52302         0.000000      0.000000     -0.000637
     -1.45810      2.52550      1.47698         0.000000      0.000000      0.000637
    total drift:                                0.000000      0.000911      0.000008

  FREE ENERGIE OF THE ION-ELECTRON SYSTEM (eV)
  free  energy   TOTEN  =       -51.13646392 eV

  energy  without entropy=      -51.13150066  energy(sigma->0) =      -51.13398229

 d Force = 0.1516297E-05[ 0.452E-06, 0.258E-05]  d Energy = 0.1371173E-05 0.145E-06
 d Force = 0.2221144E-01[ 0.222E-01, 0.222E-01]  d Ewald  = 0.2221144E-01 0.505E-10

 stress matrix after NEB project (eV)
      0.04829      0.00000      0.00000
     -0.00000      0.04829      0.00000
      0.00000      0.00000     -0.02149
  FORCES: max atom, RMS     0.000701    0.000686
  FORCE total and by dimension    0.001939    0.000701
  Stress total and by dimension    0.071590    0.048286

 reached required accuracy - stopping structural energy minimisation