 vasp.6.4.2 20Jul23 (build Aug 23 2023 19:13:21) complex

 executed on             LinuxIFC date 2023.10.04  14:41:57

 INCAR:
   SYSTEM = Relaxation_HSE06
   ISTART = 1
   ICHARG = 2
   PREC = Accurate
   LORBIT = 11
   ENCUT = 450
   LWAVE = .TRUE.
   ALGO = Damped
   NELM = 64
   EDIFF = 1E-6
   EDIFFG = -1E-3
   SIGMA = 0.1
   ISMEAR = 0
   NSW = 128
   IBRION = 2
   POTIM = .5
   ISIF = 3
   GGA = PE
   LHFCALC = .TRUE.
   AEXX = 0.25
   HFSCREEN = 0.2
   NKRED = 1
   NPAR = 8
   KPAR = 2

 POTCAR:    PAW_PBE B 06Sep2000
 POTCAR:    PAW_PBE B 06Sep2000
   VRHFIN =B: s2p1

   TITEL  = PAW_PBE B 06Sep2000
   POMASS =   10.811; ZVAL   =    3.000    mass and valenz
   ENMAX  =  318.614; ENMIN  =  238.960 eV

  PAW_PBE B 06Sep2000                   :

 POSCAR: Borophene with lattice parameter 5.051
  positions in direct lattice
  velocities in cartesian coordinates
 exchange correlation table for  LEXCH =        8
   RHO(1)=    0.500       N(1)  =     2000
   RHO(2)=  100.500       N(2)  =     4000

 VTST: version 4.1, (05/19/21)

 CHAIN: initializing optimizer

 OPT: Using VASP Conjugate-Gradient optimizer
 CHAIN: Read ICHAIN            0

 POSCAR: Borophene with lattice parameter 5.051
  positions in direct lattice
  velocities in cartesian coordinates

 ion  position               nearest neighbor table
   1  0.669  0.000  0.100-   3 1.67   6 1.67   7 1.69   8 1.69   2 1.71
   2  0.331  0.000  0.100-   5 1.67   4 1.67   7 1.69   8 1.69   1 1.71
   3  0.000  0.331  0.100-   5 1.67   1 1.67   8 1.69   7 1.69   4 1.71
   4  0.000  0.669  0.100-   2 1.67   6 1.67   8 1.69   7 1.69   3 1.71
   5  0.331  0.331  0.100-   2 1.67   3 1.67   7 1.69   8 1.69   6 1.71
   6  0.669  0.669  0.100-   1 1.67   4 1.67   7 1.69   8 1.69   5 1.71
   7  0.667  0.333  0.100-   1 1.69   5 1.69   6 1.69   2 1.69   4 1.69   3 1.69
   8  0.333  0.667  0.100-   4 1.69   5 1.69   6 1.69   3 1.69   1 1.69   2 1.69

  LATTYP: Found a hexagonal cell.
 ALAT       =     5.0509997276
 C/A-ratio  =     2.9697091287

  Lattice vectors:

 A1 = (   4.3742940000,   2.5255000000,   0.0000000000)
 A2 = (  -4.3742940000,   2.5255000000,   0.0000000000)
 A3 = (   0.0000000000,   0.0000000000,  15.0000000000)

Analysis of symmetry for initial positions (statically):
 Subroutine PRICEL returns:
 Original cell was already a primitive cell.

 Routine SETGRP: Setting up the symmetry group for a
 hexagonal supercell.

 Subroutine GETGRP returns: Found 12 space group operations
 (whereof  6 operations were pure point group operations)
 out of a pool of 24 trial point group operations.

The static configuration has the point symmetry C_3v.
 The point group associated with its full space group is D_3d.

Analysis of symmetry for dynamics (positions and initial velocities):
 Subroutine PRICEL returns:
 Original cell was already a primitive cell.

 Routine SETGRP: Setting up the symmetry group for a
 hexagonal supercell.

 Subroutine GETGRP returns: Found 12 space group operations
 (whereof  6 operations were pure point group operations)
 out of a pool of 24 trial point group operations.

The dynamic configuration has the point symmetry C_3v.
 The point group associated with its full space group is D_3d.

 Subroutine INISYM returns: Found 12 space group operations
 (whereof  6 operations are pure point group operations),
 and found     1 'primitive' translations

                                     Primitive cell

  volume of cell :     331.4184

  direct lattice vectors                    reciprocal lattice vectors
     4.374294000  2.525500000  0.000000000     0.114304160  0.197980598  0.000000000
    -4.374294000  2.525500000  0.000000000    -0.114304160  0.197980598  0.000000000
     0.000000000  0.000000000 15.000000000     0.000000000  0.000000000  0.066666667

  length of vectors
     5.050999728  5.050999728 15.000000000     0.228608307  0.228608307  0.066666667

  position of ions in fractional coordinates (direct lattice)
     0.668931733  1.000000000  0.100000000
     0.331067267  1.000000000  0.100000000
     1.000000000  0.331067267  0.100000000
     1.000000000  0.668931733  0.100000000
     0.331067267  0.331067267  0.100000000
     0.668931733  0.668931733  0.100000000
     0.666666000  0.333333000  0.099956110
     0.333333000  0.666666000  0.100043890

  ion indices of the primitive-cell ions
   primitive index   ion index
                 1           1
                 2           2
                 3           3
                 4           4
                 5           5
                 6           6
                 7           7
                 8           8

 KPOINTS: k-points

Automatic generation of k-mesh.
 Grid dimensions read from file:
 generate k-points for:   11   11    1

 Generating k-lattice:

  Cartesian coordinates                     Fractional coordinates (reciprocal lattice)
     0.010391287  0.017998236  0.000000000     0.090909091 -0.000000000  0.000000000
    -0.010391287  0.017998236  0.000000000    -0.000000000  0.090909091  0.000000000
     0.000000000  0.000000000  0.066666667     0.000000000  0.000000000  1.000000000

  Length of vectors
     0.020782573  0.020782573  0.066666667

  Shift w.r.t. Gamma in fractional coordinates (k-lattice)
     0.000000000  0.000000000  0.000000000

 Subroutine IBZKPT returns following result:

 Found     16 irreducible k-points:

 Following reciprocal coordinates:
            Coordinates               Weight
  0.000000  0.000000  0.000000      1.000000
  0.090909  0.000000  0.000000      6.000000
  0.181818  0.000000  0.000000      6.000000
  0.272727  0.000000  0.000000      6.000000
  0.363636  0.000000  0.000000      6.000000
  0.454545  0.000000  0.000000      6.000000
  0.090909  0.090909  0.000000      6.000000
  0.181818  0.090909  0.000000     12.000000
  0.272727  0.090909  0.000000     12.000000
  0.363636  0.090909  0.000000     12.000000
  0.454545  0.090909  0.000000      6.000000
  0.181818  0.181818  0.000000      6.000000
  0.272727  0.181818  0.000000     12.000000
  0.363636  0.181818  0.000000     12.000000
  0.272727  0.272727  0.000000      6.000000
  0.363636  0.272727  0.000000      6.000000

 Following cartesian coordinates:
            Coordinates               Weight
  0.000000  0.000000  0.000000      1.000000
  0.010391  0.017998  0.000000      6.000000
  0.020783  0.035996  0.000000      6.000000
  0.031174  0.053995  0.000000      6.000000
  0.041565  0.071993  0.000000      6.000000
  0.051956  0.089991  0.000000      6.000000
  0.000000  0.035996  0.000000      6.000000
  0.010391  0.053995  0.000000     12.000000
  0.020783  0.071993  0.000000     12.000000
  0.031174  0.089991  0.000000     12.000000
  0.041565  0.107989  0.000000      6.000000
  0.000000  0.071993  0.000000      6.000000
  0.010391  0.089991  0.000000     12.000000
  0.020783  0.107989  0.000000     12.000000
 -0.000000  0.107989  0.000000      6.000000
  0.010391  0.125988  0.000000      6.000000

 Subroutine IBZKPT_HF returns following result:

 Found    121 k-points in 1st BZ
 the following    121 k-points will be used (e.g. in the exchange kernel)
 Following reciprocal coordinates:   # in IRBZ
  0.000000  0.000000  0.000000    0.00826446   1 t-inv F
  0.090909  0.000000  0.000000    0.00826446   2 t-inv F
  0.181818  0.000000  0.000000    0.00826446   3 t-inv F
  0.272727  0.000000  0.000000    0.00826446   4 t-inv F
  0.363636  0.000000  0.000000    0.00826446   5 t-inv F
  0.454545  0.000000  0.000000    0.00826446   6 t-inv F
  0.090909  0.090909  0.000000    0.00826446   7 t-inv F
  0.181818  0.090909  0.000000    0.00826446   8 t-inv F
  0.272727  0.090909  0.000000    0.00826446   9 t-inv F
  0.363636  0.090909  0.000000    0.00826446  10 t-inv F
  0.454545  0.090909  0.000000    0.00826446  11 t-inv F
  0.181818  0.181818  0.000000    0.00826446  12 t-inv F
  0.272727  0.181818  0.000000    0.00826446  13 t-inv F
  0.363636  0.181818  0.000000    0.00826446  14 t-inv F
  0.272727  0.272727  0.000000    0.00826446  15 t-inv F
  0.363636  0.272727  0.000000    0.00826446  16 t-inv F
 -0.090909  0.090909  0.000000    0.00826446   2 t-inv F
  0.000000 -0.090909  0.000000    0.00826446   2 t-inv F
 -0.090909 -0.000000  0.000000    0.00826446   2 t-inv F
  0.090909 -0.090909  0.000000    0.00826446   2 t-inv F
 -0.000000  0.090909  0.000000    0.00826446   2 t-inv F
 -0.181818  0.181818  0.000000    0.00826446   3 t-inv F
  0.000000 -0.181818  0.000000    0.00826446   3 t-inv F
 -0.181818 -0.000000  0.000000    0.00826446   3 t-inv F
  0.181818 -0.181818  0.000000    0.00826446   3 t-inv F
 -0.000000  0.181818  0.000000    0.00826446   3 t-inv F
 -0.272727  0.272727  0.000000    0.00826446   4 t-inv F
  0.000000 -0.272727  0.000000    0.00826446   4 t-inv F
 -0.272727 -0.000000  0.000000    0.00826446   4 t-inv F
  0.272727 -0.272727  0.000000    0.00826446   4 t-inv F
 -0.000000  0.272727  0.000000    0.00826446   4 t-inv F
 -0.363636  0.363636  0.000000    0.00826446   5 t-inv F
  0.000000 -0.363636  0.000000    0.00826446   5 t-inv F
 -0.363636 -0.000000  0.000000    0.00826446   5 t-inv F
  0.363636 -0.363636  0.000000    0.00826446   5 t-inv F
 -0.000000  0.363636  0.000000    0.00826446   5 t-inv F
 -0.454545  0.454545  0.000000    0.00826446   6 t-inv F
  0.000000 -0.454545  0.000000    0.00826446   6 t-inv F
 -0.454545 -0.000000  0.000000    0.00826446   6 t-inv F
  0.454545 -0.454545  0.000000    0.00826446   6 t-inv F
 -0.000000  0.454545  0.000000    0.00826446   6 t-inv F
 -0.181818  0.090909  0.000000    0.00826446   7 t-inv F
  0.090909 -0.181818  0.000000    0.00826446   7 t-inv F
 -0.090909  0.181818  0.000000    0.00826446   7 t-inv F
  0.181818 -0.090909  0.000000    0.00826446   7 t-inv F
 -0.090909 -0.090909  0.000000    0.00826446   7 t-inv F
 -0.272727  0.181818  0.000000    0.00826446   8 t-inv F
  0.090909 -0.272727  0.000000    0.00826446   8 t-inv F
 -0.181818  0.272727  0.000000    0.00826446   8 t-inv F
  0.272727 -0.090909  0.000000    0.00826446   8 t-inv F
 -0.090909 -0.181818  0.000000    0.00826446   8 t-inv F
 -0.181818 -0.090909  0.000000    0.00826446   8 t-inv F
  0.272727 -0.181818  0.000000    0.00826446   8 t-inv F
 -0.090909  0.272727  0.000000    0.00826446   8 t-inv F
  0.181818 -0.272727  0.000000    0.00826446   8 t-inv F
 -0.272727  0.090909  0.000000    0.00826446   8 t-inv F
  0.090909  0.181818  0.000000    0.00826446   8 t-inv F
 -0.363636  0.272727  0.000000    0.00826446   9 t-inv F
  0.090909 -0.363636  0.000000    0.00826446   9 t-inv F
 -0.272727  0.363636  0.000000    0.00826446   9 t-inv F
[...]
  0.545455 -0.363636  0.000000    0.00826446  14 t-inv F
 -0.181818  0.545455  0.000000    0.00826446  14 t-inv F
  0.363636 -0.545455  0.000000    0.00826446  14 t-inv F
 -0.545455  0.181818  0.000000    0.00826446  14 t-inv F
  0.181818  0.363636  0.000000    0.00826446  14 t-inv F
 -0.545455  0.272727  0.000000    0.00826446  15 t-inv F
  0.272727 -0.545455  0.000000    0.00826446  15 t-inv F
 -0.272727  0.545455  0.000000    0.00826446  15 t-inv F
  0.545455 -0.272727  0.000000    0.00826446  15 t-inv F
 -0.272727 -0.272727  0.000000    0.00826446  15 t-inv F
[...]
  atomic energy  EATOM  =       562.12966956
  free energy    TOTEN  =       -55.54542866 eV

  energy without entropy =      -55.53830224  energy(sigma->0) =      -55.54186545
  exchange ACFDT corr.  =        -0.00162625  see jH, gK, PRB 81, 115126

[...]

  average scaling for gradient   0.8178

 average (electrostatic) potential at core
  the test charge radii are     0.7672
  (the norm of the test charge is              1.0000)
       1 -32.5505       2 -32.5506       3 -32.5506       4 -32.5505       5 -32.5507
       6 -32.5505       7 -33.9080       8 -33.9081

 E-fermi :  -2.2011     XC(G=0):  -2.4787     alpha+bet : -2.6791

 Fermi energy:        -2.2011065097

 k-point     1 :       0.0000    0.0000    0.0000
  band No.  band energies     occupation
      1     -20.0649      2.00000
      2     -15.3617      2.00000
      3     -15.2915      2.00000
      4     -15.2915      2.00000
      5     -12.9617      2.00000
      6     -12.9617      2.00000
      7     -10.6585      2.00000
      8      -9.8279      2.00000
      9      -4.2764      2.00000
     10      -4.2764      2.00000
     11      -2.2965      1.81918
     12      -1.7206      0.00000
     13      -1.7205      0.00000
     14      -1.3759      0.00000
     15      -1.3759      0.00000
     16      -1.0594      0.00000
     17      -1.0594      0.00000
     18       0.9410      0.00000
     19       1.7962      0.00000
     20       2.4385      0.00000
     21       2.9664      0.00000
     22       4.5520      0.00000
     23       5.0708      0.00000
     24       6.4237      0.00000

[...]

 soft charge-density along one line, spin component           1
         0         1         2         3         4         5         6         7         8         9
 total charge-density along one line

------------------------ aborting loop because EDIFF is reached ----------------------------------------

 total charge

# of ion       s       p       d       tot
    1        0.696   1.399   0.000   2.095
    2        0.696   1.399   0.000   2.095
    3        0.696   1.399   0.000   2.095
    4        0.696   1.399   0.000   2.095
    5        0.696   1.399   0.000   2.095
    6        0.696   1.399   0.000   2.095
    7        0.675   1.377   0.000   2.052
    8        0.675   1.377   0.000   2.052
tot          5.523  11.150   0.000  16.673

  FORCE on cell =-STRESS in cart. coord.  units (eV):
  Direction    XX          YY          ZZ          XY          YZ          ZX
  Alpha Z    13.28498    13.28498    13.28498
  Ewald    2352.61982  2352.61965 -2948.37789    -0.00000     0.00000    -0.00000
  Hartree  2200.71421  2200.71421 -2186.91091    -0.00000    -0.00000    -0.00000
  E(xc)     -59.03457   -59.03457   -59.41605     0.00000    -0.00000     0.00000
  Local   -4726.04302 -4726.04291  4905.74543    -0.00000     0.00000     0.00000
  n-local    -7.84289   -11.01988   -12.99049    -1.55474     0.00020    -0.00006
  augment     0.35886     0.35886     0.42588    -0.00000     0.00000    -0.00000
  Kinetic   240.21130   248.43161   304.24506     2.91410    -0.00134    -0.00064
  Fock      -17.85341   -17.97577   -16.02145    -0.10113    -0.00002    -0.00001
  Total      -1.12426    -1.12426    -0.01544    -0.00000     0.00000     0.00000
  in kB      -5.43503    -5.43503    -0.07466    -0.00000     0.00000     0.00000

 VOLUME and BASIS-vectors are now :
  energy-cutoff  :      450.00
  volume of cell :      331.42
      direct lattice vectors                 reciprocal lattice vectors
     4.374294000  2.525500000  0.000000000     0.114304160  0.197980598  0.000000000
    -4.374294000  2.525500000  0.000000000    -0.114304160  0.197980598  0.000000000
     0.000000000  0.000000000 15.000000000     0.000000000  0.000000000  0.066666667

[...]

 FORCES acting on ions:
    Electron-Ion                     Ewald-Force                    Non-Local-Force
   -.256E+02 -.148E+02 0.136E-05   0.283E+02 0.163E+02 0.764E-07   -.276E+01 -.159E+01 0.222E-20
   0.256E+02 0.148E+02 0.139E-05   -.283E+02 -.163E+02 0.145E-06   0.276E+01 0.159E+01 -.212E-20
   -.256E+02 0.148E+02 0.140E-05   0.283E+02 -.163E+02 -.145E-06   -.276E+01 0.159E+01 0.339E-20
   0.256E+02 -.148E+02 0.138E-05   -.283E+02 0.163E+02 -.765E-07   0.276E+01 -.159E+01 0.424E-20
   0.204E-05 0.296E+02 0.137E-05   0.142E-13 -.327E+02 -.627E-11   -.320E-16 0.318E+01 0.424E-20
   0.280E-05 -.296E+02 0.139E-05   0.142E-13 0.327E+02 -.627E-11   0.398E-16 -.318E+01 -.424E-20
   0.391E-04 0.660E-04 0.158E+00   0.211E-03 0.309E-03 -.163E+00   -.263E-17 0.480E-17 0.532E-02
   -.391E-04 0.660E-04 -.158E+00   -.211E-03 0.309E-03 0.163E+00   -.286E-17 0.238E-17 -.532E-02
   -.386E-07 0.882E-03 0.148E-04   -.373E-14 0.320E-15 0.666E-15   -.442E-15 -.437E-15 0.173E-17

 POSITION                                       TOTAL-FORCE (eV/Angst)
      2.92610      1.68939      1.50000        -0.134433     -0.077615      0.000000
      1.44819      0.83611      1.50000         0.134433      0.077615      0.000000
     -1.44819      0.83611      1.50000        -0.134433      0.077615      0.000000
     -2.92610      1.68939      1.50000         0.134433     -0.077615      0.000000
      0.00000      1.67222      1.50000         0.000000      0.155229      0.000000
     -0.00000      3.37877      1.50000         0.000000     -0.155229      0.000000
      1.45810      2.52550      1.49934         0.000000     -0.000000      0.000054
     -1.45810      2.52550      1.50066         0.000000     -0.000000     -0.000054
    total drift:                               -0.000000      0.000882      0.000015

  FREE ENERGIE OF THE ION-ELECTRON SYSTEM (eV)
  free  energy   TOTEN  =       -55.56371646 eV

  energy  without entropy=      -55.55688386  energy(sigma->0) =      -55.56030016

 stress matrix after NEB project (eV)
     -1.12426     -0.00000      0.00000
     -0.00000     -1.12426      0.00000
      0.00000      0.00000     -0.01544
  FORCES: max atom, RMS     0.155229    0.134433
  FORCE total and by dimension    0.380233    0.155229
  Stress total and by dimension    1.590023    1.124263

 writing wavefunctions

[...]

 eigenvalue-minimisations  :     0
 total energy-change (2. order) : 0.6134616E-01  (-0.4672464E-01)
 number of electron      24.0000000 magnetization
 augmentation part       -0.0423760 magnetization

[...]

 d Force =-0.4820764E-03[-0.789E-02, 0.693E-02]  d Energy =-0.5282633E-02 0.480E-02
 d Force =-0.1506409E+01[-0.155E+01,-0.146E+01]  d Ewald  =-0.3377152E+02 0.323E+02

 stress matrix after NEB project (eV)
      1.88138     -0.00000      0.00000
      0.00000      1.88138      0.00000
      0.00000      0.00000     -0.01911
  FORCES: max atom, RMS     0.176834    0.153143
  FORCE total and by dimension    0.433153    0.176834
  Stress total and by dimension    2.660744    1.881382
 Steepest descent step on ions:
 trial-energy change:    0.005283  1 .order    0.005618   -0.022219    0.033456
  (g-gl).g = 0.222E-01      g.g   = 0.222E-01  gl.gl    = 0.000E+00
 g(Force)  = 0.697E-02   g(Stress)= 0.152E-01 ortho     = 0.000E+00
 gamma     =   0.00000
 trial     =   1.00000
 opt step  =   0.40782  (harmonic =   0.39909) maximal distance =0.00305407
 next E    =   -55.568270   (d E  =  -0.00455)

[...]

 d Force = 0.2012369E-02[-0.699E-03, 0.472E-02]  d Energy = 0.9824641E-02-0.781E-02
 d Force = 0.9131228E+00[ 0.896E+00, 0.930E+00]  d Ewald  = 0.2010229E+02-0.192E+02

[...]

 d Force = 0.1248890E-05[ 0.120E-05, 0.130E-05]  d Energy = 0.4978360E-06 0.751E-06
 d Force =-0.1666463E-02[-0.167E-02,-0.167E-02]  d Ewald  =-0.3725782E-01 0.356E-01

[...]

 d Force =-0.6129934E-06[-0.615E-06,-0.611E-06]  d Energy = 0.7329982E-07-0.686E-06
 d Force = 0.8508810E-03[ 0.851E-03, 0.851E-03]  d Ewald  = 0.1902310E-01-0.182E-01

[...]

 d Force = 0.6056930E-04[-0.411E-04, 0.162E-03]  d Energy = 0.8106081E-04-0.205E-04
 d Force =-0.2253151E+00[-0.226E+00,-0.225E+00]  d Ewald  = 0.1492659E+01-0.172E+01

 stress matrix after NEB project (eV)
     -0.01799     -0.00000     -0.00000
      0.00000     -0.01799      0.00000
      0.00000      0.00000     -0.01616
  FORCES: max atom, RMS     0.006140    0.005318
  FORCE total and by dimension    0.015040    0.006140
  Stress total and by dimension    0.030142    0.017990
 Conjugate gradient step on ions:
 trial-energy change:   -0.000081  1 .order   -0.000084   -0.000222    0.000054
  (g-gl).g = 0.284E-03      g.g   = 0.252E-03  gl.gl    = 0.222E-01
 g(Force)  = 0.170E-03   g(Stress)= 0.824E-04 ortho     =-0.318E-04
 gamma     =   0.01279
 trial     =   0.88167
 opt step  =   0.70892  (harmonic =   0.70892) maximal distance =0.00089676
 next E    =   -55.568348   (d E  =  -0.00009)

[...]

 d Force = 0.6308630E-05[ 0.457E-05, 0.805E-05]  d Energy = 0.5686070E-05 0.623E-06
 d Force = 0.4424647E-01[ 0.442E-01, 0.443E-01]  d Ewald  =-0.2922107E+00 0.336E+00

[...]

 d Force = 0.8223182E-06[-0.877E-07, 0.173E-05]  d Energy =-0.3939999E-06 0.122E-05
 d Force = 0.1676471E-01[ 0.168E-01, 0.168E-01]  d Ewald  =-0.1108447E+00 0.128E+00

[...]

 d Force = 0.7065464E-07[ 0.120E-06, 0.209E-07]  d Energy = 0.4568028E-06-0.386E-06
 d Force =-0.3989994E-02[-0.399E-02,-0.399E-02]  d Ewald  = 0.2638670E-01-0.304E-01

[...]

 writing wavefunctions

--------------------------------------- Ionic step       10  -------------------------------------------

[...]

 eigenvalue-minimisations  :     0
 total energy-change (2. order) : 0.3446899E-06  (-0.8515866E-06)
 number of electron      24.0000000 magnetization
 augmentation part       -0.0469176 magnetization

[...]

--------------------------------------- Iteration     10(   2)  ---------------------------------------

 eigenvalue-minimisations  :     0
 total energy-change (2. order) :-0.6345258E-06  (-0.4148176E-06)
 number of electron      24.0000000 magnetization
 augmentation part       -0.0469139 magnetization

 Free energy of the ion-electron system (eV)
  alpha Z        PSCENC =        13.35132620
  Ewald energy   TEWEN  =      1769.39168336
  -Hartree energ DENC   =     -2227.04908167
  -exchange      EXHF   =        42.06817851
  -V(xc)+E(xc)   XCENC  =        44.50926931
  PAW double counting   =      2621.67025641    -2616.29219593
  entropy T*S    EENTRO =        -0.00710307
  eigenvalues    EBANDS =      -265.34032806
  atomic energy  EATOM  =       562.12966956
  free energy    TOTEN  =       -55.56834588 eV

  energy without entropy =      -55.56124282  energy(sigma->0) =      -55.56479435
  exchange ACFDT corr.  =        -0.00163165  see jH, gK, PRB 81, 115126

  average scaling for gradient   0.9827

 average (electrostatic) potential at core
  the test charge radii are     0.7672
  (the norm of the test charge is              1.0000)
       1 -32.5087       2 -32.5088       3 -32.5088       4 -32.5087       5 -32.5089
       6 -32.5087       7 -33.8755       8 -33.8755

 E-fermi :  -2.1773     XC(G=0):  -2.4794     alpha+bet : -2.6925

 Fermi energy:        -2.1773482247

[...]

 k-point    16 :       0.3636    0.2727    0.0000
  band No.  band energies     occupation
      1     -18.8562      2.00000
      2     -18.5514      2.00000
      3     -16.4563      2.00000
      4     -12.7987      2.00000
      5     -12.2402      2.00000
      6     -10.8588      2.00000
      7     -10.7277      2.00000
      8      -7.8249      2.00000
      9      -7.3648      2.00000
     10      -7.1357      2.00000
     11      -6.9004      2.00000
     12      -5.1925      2.00000
     13       0.6376      0.00000
     14       1.7281      0.00000
     15       1.7458      0.00000
     16       1.9748      0.00000
     17       2.7018      0.00000
     18       2.9792      0.00000
     19       3.1655      0.00000
     20       3.3632      0.00000
     21       4.0181      0.00000
     22       4.2908      0.00000
     23       4.3787      0.00000
     24       4.7950      0.00000

 soft charge-density along one line, spin component           1
         0         1         2         3         4         5         6         7         8         9
 total charge-density along one line

------------------------ aborting loop because EDIFF is reached ----------------------------------------

[...]

  FORCE on cell =-STRESS in cart. coord.  units (eV):
  Direction    XX          YY          ZZ          XY          YZ          ZX
  Alpha Z    13.35133    13.35133    13.35133
  Ewald    2366.24679  2366.24661 -2963.10255    -0.00000     0.00000    -0.00000
  Hartree  2212.82892  2212.82892 -2198.60807     0.00000    -0.00000    -0.00000
  E(xc)     -59.16856   -59.16856   -59.54457    -0.00000     0.00000     0.00000
  Local   -4751.49498 -4751.49486  4931.63774    -0.00000    -0.00000     0.00000
  n-local    -8.05328   -11.24249   -13.18636    -1.55722     0.00017    -0.00008
  augment     0.34704     0.34704     0.41618     0.00000     0.00000     0.00000
  Kinetic   241.49526   249.52637   305.10929     2.82846    -0.00132    -0.00061
  Fock      -17.90611   -18.03160   -16.08840    -0.10180    -0.00002    -0.00002
  Total       0.00459     0.00459    -0.01541    -0.00000     0.00000     0.00000
  in kB       0.02229     0.02229    -0.07487    -0.00000     0.00000     0.00000

 VOLUME and BASIS-vectors are now :
  energy-cutoff  :      450.00
  volume of cell :      329.77
      direct lattice vectors                 reciprocal lattice vectors
     4.363411762  2.519217136  0.000000000     0.114589231  0.198474357  0.000000000
    -4.363411762  2.519217136  0.000000000    -0.114589231  0.198474357  0.000000000
     0.000000000  0.000000000 15.000000000     0.000000000  0.000000000  0.066666667

  length of vectors
     5.038434001  5.038434001 15.000000000     0.229178450  0.229178450  0.066666667

 FORCES acting on ions:
    Electron-Ion                     Ewald-Force                    Non-Local-Force
   -.264E+02 -.153E+02 0.178E-05   0.292E+02 0.169E+02 0.779E-07   -.268E+01 -.154E+01 -.582E-20
   0.264E+02 0.153E+02 0.180E-05   -.292E+02 -.169E+02 0.148E-06   0.268E+01 0.154E+01 -.794E-20
   -.264E+02 0.153E+02 0.182E-05   0.292E+02 -.169E+02 -.148E-06   -.268E+01 0.154E+01 -.339E-20
   0.264E+02 -.153E+02 0.180E-05   -.292E+02 0.169E+02 -.780E-07   0.268E+01 -.154E+01 0.102E-19
   0.193E-05 0.305E+02 0.180E-05   0.711E-14 -.337E+02 -.634E-11   0.404E-16 0.309E+01 0.847E-21
   0.275E-05 -.305E+02 0.180E-05   0.249E-13 0.337E+02 -.634E-11   -.412E-16 -.309E+01 -.593E-20
   0.391E-04 0.656E-04 0.160E+00   0.213E-03 0.313E-03 -.165E+00   -.563E-19 0.376E-17 0.519E-02
   -.391E-04 0.656E-04 -.160E+00   -.213E-03 0.313E-03 0.165E+00   -.552E-18 -.625E-17 -.519E-02
   -.947E-07 0.882E-03 0.226E-04   -.366E-14 0.327E-14 0.389E-15   0.443E-15 -.447E-15 -.867E-18

 POSITION                                       TOTAL-FORCE (eV/Angst)
      2.91546      1.68324      1.50000         0.000840      0.000485      0.000000
      1.44795      0.83597      1.50000        -0.000840     -0.000485      0.000000
     -1.44795      0.83597      1.50000         0.000840     -0.000485      0.000000
     -2.91546      1.68324      1.50000        -0.000840      0.000485      0.000000
     -0.00000      1.67195      1.50000         0.000000     -0.000970      0.000000
      0.00000      3.36648      1.50000        -0.000000      0.000970      0.000000
      1.45447      2.51921      1.49934         0.000000     -0.000000     -0.000137
     -1.45447      2.51921      1.50066        -0.000000     -0.000000      0.000137
    total drift:                               -0.000000      0.000882      0.000023

  FREE ENERGIE OF THE ION-ELECTRON SYSTEM (eV)
  free  energy   TOTEN  =       -55.56834588 eV

  energy  without entropy=      -55.56124282  energy(sigma->0) =      -55.56479435

 d Force = 0.4536813E-08[-0.184E-06, 0.193E-06]  d Energy = 0.3599280E-07-0.315E-07
 d Force =-0.6387067E-02[-0.639E-02,-0.639E-02]  d Ewald  = 0.4223024E-01-0.486E-01

 stress matrix after NEB project (eV)
      0.00459     -0.00000      0.00000
     -0.00000      0.00459      0.00000
      0.00000      0.00000     -0.01541
  FORCES: max atom, RMS     0.000970    0.000843
  FORCE total and by dimension    0.002383    0.000970
  Stress total and by dimension    0.016720    0.015410

 reached required accuracy - stopping structural energy minimisation
 writing wavefunctions

 total charge

# of ion       s       p       d       tot
    1        0.698   1.409   0.000   2.107
    2        0.698   1.409   0.000   2.107
    3        0.698   1.409   0.000   2.107
    4        0.698   1.409   0.000   2.107
    5        0.698   1.409   0.000   2.107
    6        0.698   1.409   0.000   2.107
    7        0.679   1.388   0.000   2.067
    8        0.679   1.388   0.000   2.067
tot          5.543  11.231   0.000  16.774