 vasp.6.4.2 20Jul23 (build Aug 23 2023 19:13:21) complex

 executed on             LinuxIFC date 2023.10.04  14:41:37

 INCAR:
   SYSTEM = Relaxation_HSE06
   ISTART = 1
   ICHARG = 2
   PREC = Accurate
   LORBIT = 11
   ENCUT = 450
   LWAVE = .TRUE.
   ALGO = Damped
   NELM = 64
   EDIFF = 1E-6
   EDIFFG = -1E-3
   SIGMA = 0.1
   ISMEAR = 0
   NSW = 128
   IBRION = 2
   POTIM = .5
   ISIF = 3
   GGA = PE
   LHFCALC = .TRUE.
   AEXX = 0.25
   HFSCREEN = 0.2
   NKRED = 1
   ISYM = 0
   NPAR = 8
   KPAR = 2

 POTCAR:    PAW_PBE B 06Sep2000
 POTCAR:    PAW_PBE C 08Apr2002
 POTCAR:    PAW_PBE B 06Sep2000
   VRHFIN =B: s2p1

   TITEL  = PAW_PBE B 06Sep2000
   POMASS =   10.811; ZVAL   =    3.000    mass and valenz
   ENMAX  =  318.614; ENMIN  =  238.960 eV

   TITEL  = PAW_PBE C 08Apr2002
   POMASS =   12.011; ZVAL   =    4.000    mass and valenz
   ENMAX  =  400.000; ENMIN  =  300.000 eV

  PAW_PBE B 06Sep2000                   :
  PAW_PBE C 08Apr2002                   :

 POSCAR: BC3 with lattice parameter 5.169
  positions in direct lattice
  velocities in cartesian coordinates
 exchange correlation table for  LEXCH =        8
   RHO(1)=    0.500       N(1)  =     2000
   RHO(2)=  100.500       N(2)  =     4000

 VTST: version 4.1, (05/19/21)

 CHAIN: initializing optimizer

 OPT: Using VASP Conjugate-Gradient optimizer
 CHAIN: Read ICHAIN            0

 POSCAR: BC3 with lattice parameter 5.169
  positions in direct lattice
  velocities in cartesian coordinates

 ion  position               nearest neighbor table
   1  0.338  0.669  0.250-   5 1.56   3 1.56   7 1.56
   2  0.672  0.336  0.250-   6 1.56   4 1.56   8 1.56
   3  0.164  0.320  0.250-   6 1.42   4 1.42   1 1.56
   4  0.322  0.161  0.250-   5 1.42   3 1.42   2 1.56
   5  0.164  0.844  0.250-   4 1.42   8 1.42   1 1.56
   6  0.846  0.161  0.250-   7 1.42   3 1.42   2 1.56
   7  0.688  0.844  0.250-   6 1.42   8 1.42   1 1.56
   8  0.846  0.685  0.250-   7 1.42   5 1.42   2 1.56

IMPORTANT INFORMATION: All symmetrisations will be switched off!
NOSYMM: (Re-)initialisation of all symmetry stuff for point group C_1.

                                     Primitive cell

  volume of cell :     347.0843

  direct lattice vectors                    reciprocal lattice vectors
     4.476485000  2.584500000  0.000000000     0.111694778  0.193461018  0.000000000
    -4.476485000  2.584500000  0.000000000    -0.111694778  0.193461018  0.000000000
     0.000000000  0.000000000 15.000000000     0.000000000  0.000000000  0.066666667

  length of vectors
     5.168999730  5.168999730 15.000000000     0.223389545  0.223389545  0.066666667

  position of ions in fractional coordinates (direct lattice)
     0.338334189  0.669165089  0.250000000
     0.671666315  0.335831896  0.250000000
     0.163745918  0.319999521  0.250000000
     0.322499481  0.161250266  0.250000000
     0.163754286  0.843749176  0.250000000
     0.846244180  0.161250584  0.250000000
     0.687500016  0.843750111  0.250000000
     0.846251614  0.684999356  0.250000000

  ion indices of the primitive-cell ions
   primitive index   ion index
                 1           1
                 2           2
                 3           3
                 4           4
                 5           5
                 6           6
                 7           7
                 8           8

 KPOINTS: k-points

Automatic generation of k-mesh.
 Grid dimensions read from file:
 generate k-points for:   11   11    1

 Generating k-lattice:

  Cartesian coordinates                     Fractional coordinates (reciprocal lattice)
     0.010154071  0.017587365  0.000000000     0.090909091  0.000000000  0.000000000
    -0.010154071  0.017587365  0.000000000     0.000000000  0.090909091  0.000000000
     0.000000000  0.000000000  0.066666667     0.000000000  0.000000000  1.000000000

  Length of vectors
     0.020308140  0.020308140  0.066666667

  Shift w.r.t. Gamma in fractional coordinates (k-lattice)
     0.000000000  0.000000000  0.000000000

 Subroutine IBZKPT returns following result:

 Found     61 irreducible k-points:

 Following reciprocal coordinates:
            Coordinates               Weight
  0.000000  0.000000  0.000000      1.000000
  0.090909  0.000000  0.000000      2.000000
  0.000000  0.090909  0.000000      2.000000
 -0.090909  0.090909  0.000000      2.000000
  0.181818  0.000000  0.000000      2.000000
  0.000000  0.181818  0.000000      2.000000
 -0.181818  0.181818  0.000000      2.000000
  0.272727  0.000000  0.000000      2.000000
  0.000000  0.272727  0.000000      2.000000
 -0.272727  0.272727  0.000000      2.000000
  0.363636  0.000000  0.000000      2.000000
  0.000000  0.363636  0.000000      2.000000
 -0.363636  0.363636  0.000000      2.000000
  0.454545  0.000000  0.000000      2.000000
  0.000000  0.454545  0.000000      2.000000
 -0.454545  0.454545  0.000000      2.000000
  0.090909  0.090909  0.000000      2.000000
 -0.090909  0.181818  0.000000      2.000000
 -0.181818  0.090909  0.000000      2.000000
  0.181818  0.090909  0.000000      2.000000
 -0.090909  0.272727  0.000000      2.000000
 -0.272727  0.181818  0.000000      2.000000
 -0.181818  0.272727  0.000000      2.000000
  0.090909  0.181818  0.000000      2.000000
  0.272727 -0.090909  0.000000      2.000000
  0.272727  0.090909  0.000000      2.000000
 -0.090909  0.363636  0.000000      2.000000
 -0.363636  0.272727  0.000000      2.000000
 -0.272727  0.363636  0.000000      2.000000
  0.090909  0.272727  0.000000      2.000000
  0.363636 -0.090909  0.000000      2.000000
  0.363636  0.090909  0.000000      2.000000
 -0.090909  0.454545  0.000000      2.000000
 -0.454545  0.363636  0.000000      2.000000
 -0.363636  0.454545  0.000000      2.000000
  0.090909  0.363636  0.000000      2.000000
  0.454545 -0.090909  0.000000      2.000000
  0.454545  0.090909  0.000000      2.000000
 -0.090909 -0.454545  0.000000      2.000000
  0.454545  0.454545  0.000000      2.000000
  0.181818  0.181818  0.000000      2.000000
 -0.181818  0.363636  0.000000      2.000000
 -0.363636  0.181818  0.000000      2.000000
  0.272727  0.181818  0.000000      2.000000
 -0.181818  0.454545  0.000000      2.000000
 -0.454545  0.272727  0.000000      2.000000
 -0.272727  0.454545  0.000000      2.000000
  0.181818  0.272727  0.000000      2.000000
  0.454545 -0.181818  0.000000      2.000000
  0.363636  0.181818  0.000000      2.000000
 -0.181818 -0.454545  0.000000      2.000000
  0.454545  0.363636  0.000000      2.000000
 -0.363636 -0.454545  0.000000      2.000000
  0.181818  0.363636  0.000000      2.000000
 -0.454545 -0.181818  0.000000      2.000000
  0.272727  0.272727  0.000000      2.000000
 -0.272727 -0.454545  0.000000      2.000000
  0.454545  0.272727  0.000000      2.000000
  0.363636  0.272727  0.000000      2.000000
 -0.272727 -0.363636  0.000000      2.000000
  0.363636  0.363636  0.000000      2.000000

 Following cartesian coordinates:
            Coordinates               Weight
  0.000000  0.000000  0.000000      1.000000
  0.010154  0.017587  0.000000      2.000000
 -0.010154  0.017587  0.000000      2.000000
 -0.020308 -0.000000  0.000000      2.000000
  0.020308  0.035175  0.000000      2.000000
 -0.020308  0.035175  0.000000      2.000000
 -0.040616 -0.000000  0.000000      2.000000
  0.030462  0.052762  0.000000      2.000000
 -0.030462  0.052762  0.000000      2.000000
 -0.060924 -0.000000  0.000000      2.000000
  0.040616  0.070349  0.000000      2.000000
 -0.040616  0.070349  0.000000      2.000000
 -0.081233 -0.000000  0.000000      2.000000
  0.050770  0.087937  0.000000      2.000000
 -0.050770  0.087937  0.000000      2.000000
 -0.101541  0.000000  0.000000      2.000000
 -0.000000  0.035175  0.000000      2.000000
 -0.030462  0.017587  0.000000      2.000000
 -0.030462 -0.017587  0.000000      2.000000
  0.010154  0.052762  0.000000      2.000000
 -0.040616  0.035175  0.000000      2.000000
 -0.050770 -0.017587  0.000000      2.000000
 -0.050770  0.017587  0.000000      2.000000
 -0.010154  0.052762  0.000000      2.000000
  0.040616  0.035175  0.000000      2.000000
  0.020308  0.070349  0.000000      2.000000
 -0.050770  0.052762  0.000000      2.000000
 -0.071078 -0.017587  0.000000      2.000000
 -0.071078  0.017587  0.000000      2.000000
 -0.020308  0.070349  0.000000      2.000000
  0.050770  0.052762  0.000000      2.000000
  0.030462  0.087937  0.000000      2.000000
 -0.060924  0.070349  0.000000      2.000000
 -0.091387 -0.017587  0.000000      2.000000
 -0.091387  0.017587  0.000000      2.000000
 -0.030462  0.087937  0.000000      2.000000
  0.060924  0.070349  0.000000      2.000000
  0.040616  0.105524  0.000000      2.000000
  0.040616 -0.105524  0.000000      2.000000
 -0.000000  0.175874  0.000000      2.000000
 -0.000000  0.070349  0.000000      2.000000
 -0.060924  0.035175  0.000000      2.000000
 -0.060924 -0.035175  0.000000      2.000000
  0.010154  0.087937  0.000000      2.000000
 -0.071078  0.052762  0.000000      2.000000
 -0.081233 -0.035175  0.000000      2.000000
 -0.081233  0.035175  0.000000      2.000000
 -0.010154  0.087937  0.000000      2.000000
  0.071078  0.052762  0.000000      2.000000
  0.020308  0.105524  0.000000      2.000000
  0.030462 -0.123112  0.000000      2.000000
  0.010154  0.158286  0.000000      2.000000
  0.010154 -0.158286  0.000000      2.000000
 -0.020308  0.105524  0.000000      2.000000
 -0.030462 -0.123112  0.000000      2.000000
  0.000000  0.105524  0.000000      2.000000
  0.020308 -0.140699  0.000000      2.000000
  0.020308  0.140699  0.000000      2.000000
  0.010154  0.123112  0.000000      2.000000
  0.010154 -0.123112  0.000000      2.000000
 -0.000000  0.140699  0.000000      2.000000

 Subroutine IBZKPT_HF returns following result:

 Found    121 k-points in 1st BZ
 the following    121 k-points will be used (e.g. in the exchange kernel)
 Following reciprocal coordinates:   # in IRBZ
  0.000000  0.000000  0.000000    0.00826446   1 t-inv F
  0.090909  0.000000  0.000000    0.00826446   2 t-inv F
  0.000000  0.090909  0.000000    0.00826446   3 t-inv F
 -0.090909  0.090909  0.000000    0.00826446   4 t-inv F
  0.181818  0.000000  0.000000    0.00826446   5 t-inv F
  0.000000  0.181818  0.000000    0.00826446   6 t-inv F
 -0.181818  0.181818  0.000000    0.00826446   7 t-inv F
  0.272727  0.000000  0.000000    0.00826446   8 t-inv F
  0.000000  0.272727  0.000000    0.00826446   9 t-inv F
 -0.272727  0.272727  0.000000    0.00826446  10 t-inv F
  0.363636  0.000000  0.000000    0.00826446  11 t-inv F
  0.000000  0.363636  0.000000    0.00826446  12 t-inv F
 -0.363636  0.363636  0.000000    0.00826446  13 t-inv F
  0.454545  0.000000  0.000000    0.00826446  14 t-inv F
  0.000000  0.454545  0.000000    0.00826446  15 t-inv F
 -0.454545  0.454545  0.000000    0.00826446  16 t-inv F
  0.090909  0.090909  0.000000    0.00826446  17 t-inv F
 -0.090909  0.181818  0.000000    0.00826446  18 t-inv F
 -0.181818  0.090909  0.000000    0.00826446  19 t-inv F
  0.181818  0.090909  0.000000    0.00826446  20 t-inv F
 -0.090909  0.272727  0.000000    0.00826446  21 t-inv F
[...]
  atomic energy  EATOM  =      1012.91678113
  free energy    TOTEN  =       -76.86406769 eV

  energy without entropy =      -76.86406769  energy(sigma->0) =      -76.86406769
  exchange ACFDT corr.  =        -0.00000000  see jH, gK, PRB 81, 115126

[...]

  average scaling for gradient   0.8804

 average (electrostatic) potential at core
  the test charge radii are     0.7672  0.6991
  (the norm of the test charge is              1.0000)
       1 -31.6620       2 -31.6620       3 -53.3360       4 -53.3360       5 -53.3360
       6 -53.3360       7 -53.3360       8 -53.3360

 E-fermi :  -4.2603     XC(G=0):  -2.3634     alpha+bet : -2.3721

 Fermi energy:        -4.2603109786

 k-point     1 :       0.0000    0.0000    0.0000
  band No.  band energies     occupation
      1     -22.3220      2.00000
      2     -18.0926      2.00000
      3     -18.0925      2.00000
      4     -15.4689      2.00000
      5     -15.4689      2.00000
      6     -14.3005      2.00000
      7     -12.9759      2.00000
      8      -9.7515      2.00000
      9      -9.7358      2.00000
     10      -7.4847      2.00000
     11      -7.4845      2.00000
     12      -4.9189      2.00000
     13      -4.9188      2.00000
     14      -4.7420      2.00000
     15      -4.7418      2.00000
     16      -1.4623      0.00000
     17       0.2414      0.00000
     18       0.2415      0.00000
     19       0.9094      0.00000
     20       0.9912      0.00000
     21       2.0082      0.00000
     22       2.3020      0.00000
     23       4.3612      0.00000
     24       4.9997      0.00000

[...]

 soft charge-density along one line, spin component           1
         0         1         2         3         4         5         6         7         8         9
 total charge-density along one line

------------------------ aborting loop because EDIFF is reached ----------------------------------------

 total charge

# of ion       s       p       d       tot
    1        0.763   1.298   0.000   2.060
    2        0.763   1.298   0.000   2.060
    3        0.881   1.727   0.000   2.608
    4        0.881   1.727   0.000   2.608
    5        0.881   1.727   0.000   2.608
    6        0.881   1.727   0.000   2.608
    7        0.881   1.727   0.000   2.608
    8        0.881   1.727   0.000   2.608
tot          6.811  12.956   0.000  19.767

  FORCE on cell =-STRESS in cart. coord.  units (eV):
  Direction    XX          YY          ZZ          XY          YZ          ZX
  Alpha Z    14.61462    14.61462    14.61462
  Ewald    3501.19577  3501.18498 -4398.90803    -0.00122    -0.00000     0.00000
  Hartree  3437.96413  3437.96122 -3379.30535    -0.00003     0.00000    -0.00000
  E(xc)     -82.04164   -82.04165   -83.56649    -0.00000     0.00000     0.00000
  Local   -7258.62151 -7258.60968  7440.37164     0.00094    -0.00000     0.00000
  n-local   -18.01103   -18.01129    -8.25526    -0.00002     0.00000     0.00000
  augment    -1.68175    -1.68167    -1.77867    -0.00001     0.00000    -0.00000
  Kinetic   432.03620   432.03844   441.79525     0.00014    -0.00000    -0.00000
  Fock      -28.04179   -28.04172   -25.10704     0.00000    -0.00000    -0.00000
  Total      -2.58700    -2.58675    -0.13935    -0.00018    -0.00000    -0.00000
  in kB     -11.94186   -11.94071    -0.64325    -0.00085    -0.00000    -0.00001

 VOLUME and BASIS-vectors are now :
  energy-cutoff  :      450.00
  volume of cell :      347.08
      direct lattice vectors                 reciprocal lattice vectors
     4.476485000  2.584500000  0.000000000     0.111694778  0.193461018  0.000000000
    -4.476485000  2.584500000  0.000000000    -0.111694778  0.193461018  0.000000000
     0.000000000  0.000000000 15.000000000     0.000000000  0.000000000  0.066666667

[...]

 FORCES acting on ions:
    Electron-Ion                     Ewald-Force                    Non-Local-Force
   -.182E-02 0.205E-03 -.301E-06   0.194E-02 -.173E-03 -.103E-18   -.102E-03 -.149E-04 0.551E-06
   0.409E-02 -.466E-03 -.177E-06   -.458E-02 0.486E-03 0.182E-18   -.362E-03 0.303E-04 0.367E-06
   0.257E+02 -.446E+02 -.493E-06   -.276E+02 0.478E+02 -.120E-18   0.193E+01 -.334E+01 0.227E-05
   -.257E+02 -.446E+02 -.164E-05   0.276E+02 0.478E+02 0.758E-18   -.193E+01 -.334E+01 0.179E-05
   -.514E+02 0.427E-03 -.121E-06   0.551E+02 -.522E-03 -.197E-18   -.386E+01 0.251E-04 0.736E-06
   0.514E+02 -.266E-03 0.777E-06   -.551E+02 0.308E-03 0.100E-18   0.386E+01 0.383E-03 0.107E-05
   0.257E+02 0.446E+02 -.556E-06   -.276E+02 -.478E+02 -.329E-18   0.193E+01 0.334E+01 -.371E-05
   -.257E+02 0.446E+02 -.966E-06   0.276E+02 -.478E+02 -.272E-18   -.193E+01 0.334E+01 -.357E-05
   0.679E-04 -.574E-04 -.349E-05   -.711E-14 0.000E+00 0.195E-19   0.211E-03 0.507E-03 -.491E-06

 POSITION                                       TOTAL-FORCE (eV/Angst)
     -1.48096      2.60388      3.75000        -0.000016     -0.000036      0.000001
      1.50336      2.60388      3.75000        -0.000902     -0.000003      0.000001
     -0.69947      1.25024      3.75000         0.190366     -0.328609      0.000002
      0.72183      1.25025      3.75000        -0.189919     -0.328898      0.000001
     -3.04399      2.60389      3.75000        -0.380496     -0.000142      0.000001
      3.06636      2.60387      3.75000         0.380547      0.000377      0.000002
     -0.69945      3.95752      3.75000         0.190083      0.328570     -0.000004
      0.72184      3.95752      3.75000        -0.189663      0.328739     -0.000004
    total drift:                                0.000257      0.000432     -0.000004

  FREE ENERGIE OF THE ION-ELECTRON SYSTEM (eV)
  free  energy   TOTEN  =       -76.92244802 eV

  energy  without entropy=      -76.92244802  energy(sigma->0) =      -76.92244802

 stress matrix after NEB project (eV)
     -2.58700     -0.00018     -0.00000
     -0.00018     -2.58675     -0.00000
     -0.00000     -0.00000     -0.13935
  FORCES: max atom, RMS     0.380547    0.329050
  FORCE total and by dimension    0.930694    0.380547
  Stress total and by dimension    3.661047    2.586999

 writing wavefunctions

[...]

 eigenvalue-minimisations  :     0
 total energy-change (2. order) : 0.1080448E+01  (-0.9785793E+00)
 number of electron      29.9999999 magnetization
 augmentation part        0.5176461 magnetization

[...]

 d Force =-0.5071271E-01[-0.143E+00, 0.411E-01]  d Energy =-0.1125755E+00 0.619E-01
 d Force =-0.6554957E+01[-0.714E+01,-0.597E+01]  d Ewald  =-0.1187200E+03 0.112E+03

 stress matrix after NEB project (eV)
      6.90871      0.00101      0.00000
      0.00101      6.90908      0.00000
      0.00000      0.00000     -0.11124
  FORCES: max atom, RMS     1.318141    1.140370
  FORCE total and by dimension    3.225454    1.318141
  Stress total and by dimension    9.771291    6.909084
 Steepest descent step on ions:
 trial-energy change:    0.112575  1 .order    0.118939   -0.122496    0.360374
  (g-gl).g = 0.122E+00      g.g   = 0.122E+00  gl.gl    = 0.000E+00
 g(Force)  = 0.418E-01   g(Stress)= 0.807E-01 ortho     = 0.000E+00
 gamma     =   0.00000
 trial     =   1.00000
 opt step  =   0.26924  (harmonic =   0.25368) maximal distance =0.00494287
 next E    =   -76.939063   (d E  =  -0.01661)

[...]

 d Force = 0.5469640E-01[ 0.234E-02, 0.107E+00]  d Energy = 0.1292482E+00-0.746E-01
 d Force = 0.5033316E+01[ 0.471E+01, 0.536E+01]  d Ewald  = 0.8750597E+02-0.825E+02

[...]

 d Force =-0.1429226E-04[-0.154E-04,-0.132E-04]  d Energy = 0.5551296E-05-0.198E-04
 d Force =-0.2657987E-01[-0.266E-01,-0.266E-01]  d Ewald  =-0.4890314E+00 0.462E+00

[...]

 d Force =-0.4433802E-05[-0.465E-05,-0.422E-05]  d Energy =-0.2348224E-07-0.441E-05
 d Force =-0.7300465E-02[-0.730E-02,-0.730E-02]  d Ewald  =-0.1342672E+00 0.127E+00

[...]

 d Force = 0.7228703E-06[ 0.705E-06, 0.740E-06]  d Energy = 0.2192610E-07 0.701E-06
 d Force = 0.1176904E-02[ 0.118E-02, 0.118E-02]  d Ewald  = 0.2164490E-01-0.205E-01

[...]

 d Force =-0.3401405E-06[-0.343E-06,-0.337E-06]  d Energy = 0.3593368E-07-0.376E-06
 d Force =-0.5622041E-03[-0.562E-03,-0.562E-03]  d Ewald  =-0.1033982E-01 0.978E-02

[...]

 d Force =-0.4243245E-04[-0.379E-03, 0.294E-03]  d Energy =-0.3672341E-04-0.571E-05
 d Force = 0.4796261E+00[ 0.477E+00, 0.482E+00]  d Ewald  =-0.4492975E+01 0.497E+01

 stress matrix after NEB project (eV)
      0.13768     -0.00041     -0.00000
     -0.00041      0.13633     -0.00000
     -0.00000     -0.00000     -0.12975
  FORCES: max atom, RMS     0.045928    0.039469
  FORCE total and by dimension    0.111635    0.045927
  Stress total and by dimension    0.233187    0.137678
 Conjugate gradient step on ions:
 trial-energy change:    0.000037  1 .order    0.000051   -0.000470    0.000572
  (g-gl).g = 0.553E-03      g.g   = 0.549E-03  gl.gl    = 0.122E+00
 g(Force)  = 0.362E-03   g(Stress)= 0.187E-03 ortho     =-0.354E-05
 gamma     =   0.00451
 trial     =   0.85478
 opt step  =   0.40313  (harmonic =   0.38539) maximal distance =0.00065411
 next E    =   -76.939239   (d E  =  -0.00011)

[...]

 eigenvalue-minimisations  :     0
 total energy-change (2. order) : 0.1173747E-02  (-0.1393974E-02)
 number of electron      29.9999999 magnetization
 augmentation part        0.4935913 magnetization

[...]

 d Force = 0.1033740E-03[ 0.613E-05, 0.201E-03]  d Energy = 0.1466250E-03-0.433E-04
 d Force =-0.2530872E+00[-0.254E+00,-0.252E+00]  d Ewald  = 0.2375850E+01-0.263E+01

[...]

 writing wavefunctions

--------------------------------------- Ionic step       11  -------------------------------------------

[...]

--------------------------------------- Iteration     11(   2)  ---------------------------------------

 eigenvalue-minimisations  :     0
 total energy-change (2. order) :-0.3144310E-06  (-0.1521638E-06)
 number of electron      29.9999999 magnetization
 augmentation part        0.4934589 magnetization

 Free energy of the ion-electron system (eV)
  alpha Z        PSCENC =        14.74992566
  Ewald energy   TEWEN  =      2637.31704040
  -Hartree energ DENC   =     -3530.95030343
  -exchange      EXHF   =        64.60176553
  -V(xc)+E(xc)   XCENC  =        74.07804989
  PAW double counting   =      3250.18786829    -3251.51089043
  entropy T*S    EENTRO =        -0.00000000
  eigenvalues    EBANDS =      -348.32944361
  atomic energy  EATOM  =      1012.91678113
  free energy    TOTEN  =       -76.93923658 eV

  energy without entropy =      -76.93923658  energy(sigma->0) =      -76.93923658
  exchange ACFDT corr.  =        -0.00000000  see jH, gK, PRB 81, 115126

  average scaling for gradient   0.9744

 average (electrostatic) potential at core
  the test charge radii are     0.7672  0.6991
  (the norm of the test charge is              1.0000)
       1 -31.5827       2 -31.5827       3 -53.2449       4 -53.2449       5 -53.2449
       6 -53.2449       7 -53.2449       8 -53.2449

 E-fermi :  -4.1663     XC(G=0):  -2.3664     alpha+bet : -2.3941

 Fermi energy:        -4.1663126603

[...]

 k-point    61 :       0.3636    0.3636    0.0000
  band No.  band energies     occupation
      1     -21.6969      2.00000
      2     -19.6628      2.00000
      3     -19.3873      2.00000
      4     -14.9330      2.00000
      5     -14.3956      2.00000
      6     -12.3691      2.00000
      7     -10.0751      2.00000
      8      -9.6887      2.00000
      9      -9.1380      2.00000
     10      -8.4549      2.00000
     11      -8.3690      2.00000
     12      -7.5139      2.00000
     13      -7.0219      2.00000
     14      -6.9411      2.00000
     15      -6.4987      2.00000
     16      -1.3166      0.00000
     17      -0.4679      0.00000
     18       3.2896      0.00000
     19       3.2977      0.00000
     20       3.9702      0.00000
     21       3.9932      0.00000
     22       4.0757      0.00000
     23       4.6161      0.00000
     24       4.6238      0.00000

 soft charge-density along one line, spin component           1
         0         1         2         3         4         5         6         7         8         9
 total charge-density along one line

------------------------ aborting loop because EDIFF is reached ----------------------------------------

[...]

  FORCE on cell =-STRESS in cart. coord.  units (eV):
  Direction    XX          YY          ZZ          XY          YZ          ZX
  Alpha Z    14.74993    14.74993    14.74993
  Ewald    3538.47716  3538.47310 -4439.63449    -0.00233     0.00001    -0.00000
  Hartree  3471.73552  3471.73478 -3412.51879    -0.00027     0.00000    -0.00000
  E(xc)     -82.30248   -82.30248   -83.82723    -0.00000     0.00000    -0.00000
  Local   -7328.99863 -7328.99482  7513.40205     0.00209    -0.00001     0.00000
  n-local   -18.47517   -18.47519    -8.55097    -0.00004    -0.00000    -0.00000
  augment    -1.73476    -1.73464    -1.81831     0.00003     0.00000    -0.00000
  Kinetic   434.73316   434.73356   443.32340     0.00038    -0.00000     0.00000
  Fock      -28.18909   -28.18906   -25.25387     0.00001    -0.00000     0.00000
  Total      -0.00435    -0.00483    -0.12828    -0.00014     0.00000     0.00000
  in kB      -0.02027    -0.02252    -0.59766    -0.00064     0.00000     0.00000

 VOLUME and BASIS-vectors are now :
  energy-cutoff  :      450.00
  volume of cell :      343.90
      direct lattice vectors                 reciprocal lattice vectors
     4.455902907  2.572619294  0.000000000     0.112210714  0.194354428  0.000000000
    -4.455903338  2.572620041  0.000000000    -0.112210682  0.194354409  0.000000000
     0.000000000  0.000000000 15.000000000     0.000000000  0.000000000  0.066666667

  length of vectors
     5.145234761  5.145235508 15.000000000     0.224421229  0.224421197  0.066666667

 FORCES acting on ions:
    Electron-Ion                     Ewald-Force                    Non-Local-Force
   -.353E-03 -.318E-03 -.370E-05   0.402E-03 0.432E-03 0.342E-05   -.676E-04 0.382E-04 0.172E-07
   0.848E-04 -.561E-04 -.333E-05   -.770E-04 0.324E-04 0.288E-05   0.111E-03 0.215E-04 0.143E-06
   0.269E+02 -.465E+02 -.104E-04   -.288E+02 0.499E+02 0.959E-05   0.186E+01 -.322E+01 0.457E-06
   -.269E+02 -.465E+02 -.125E-05   0.288E+02 0.499E+02 0.524E-06   -.186E+01 -.322E+01 0.513E-06
   -.537E+02 0.264E-03 -.740E-05   0.577E+02 -.385E-03 0.715E-05   -.372E+01 0.508E-04 -.374E-06
   0.537E+02 -.149E-03 -.111E-04   -.577E+02 0.194E-03 0.106E-04   0.372E+01 0.240E-03 0.238E-07
   0.269E+02 0.465E+02 0.155E-04   -.288E+02 -.499E+02 -.153E-04   0.186E+01 0.322E+01 0.236E-06
   -.269E+02 0.465E+02 0.186E-04   0.288E+02 -.499E+02 -.188E-04   -.186E+01 0.322E+01 0.238E-06
   -.191E-04 -.460E-04 -.316E-05   0.000E+00 0.142E-13 -.610E-19   0.345E-03 0.571E-03 0.125E-05

 POSITION                                       TOTAL-FORCE (eV/Angst)
     -1.47415      2.59191      3.75000        -0.000061      0.000091     -0.000000
      1.49643      2.59191      3.75000         0.000083     -0.000066     -0.000000
     -0.69417      1.24092      3.75000         0.000302     -0.000635     -0.000000
      0.71644      1.24092      3.75000        -0.000222     -0.000593      0.000000
     -3.03414      2.59192      3.75000        -0.000874     -0.000155     -0.000000
      3.05642      2.59190      3.75000         0.000796      0.000226     -0.000000
     -0.69416      3.94291      3.75000         0.000185      0.000539      0.000001
      0.71645      3.94291      3.75000        -0.000210      0.000593      0.000000
    total drift:                                0.000313      0.000501     -0.000002

  FREE ENERGIE OF THE ION-ELECTRON SYSTEM (eV)
  free  energy   TOTEN  =       -76.93923658 eV

  energy  without entropy=      -76.93923658  energy(sigma->0) =      -76.93923658

 d Force = 0.6893631E-07[ 0.460E-07, 0.919E-07]  d Energy = 0.1066228E-06-0.377E-07
 d Force =-0.3808259E-02[-0.381E-02,-0.381E-02]  d Ewald  = 0.3563177E-01-0.394E-01

 stress matrix after NEB project (eV)
     -0.00435     -0.00014      0.00000
     -0.00014     -0.00483      0.00000
      0.00000      0.00000     -0.12828
  FORCES: max atom, RMS     0.000888    0.000624
  FORCE total and by dimension    0.001764    0.000874
  Stress total and by dimension    0.128449    0.128285

 reached required accuracy - stopping structural energy minimisation
 writing wavefunctions

 total charge

# of ion       s       p       d       tot
    1        0.766   1.305   0.000   2.070
    2        0.766   1.305   0.000   2.070
    3        0.885   1.744   0.000   2.629
    4        0.885   1.744   0.000   2.629
    5        0.885   1.744   0.000   2.629
    6        0.885   1.744   0.000   2.629
    7        0.885   1.744   0.000   2.629
    8        0.885   1.744   0.000   2.629
tot          6.839  13.073   0.000  19.912