 vasp.6.3.2 27Jun22 (build May 31 2023 12:07:17) complex

 executed on             LinuxIFC date 2024.04.23  22:17:22

 INCAR:
   SYSTEM = Dielectric_function
   ISTART = 1
   ICHARG = 2
   PREC = Accurate
   ENCUT = 450
   ALGO = Damped
   EDIFF = 1E-8
   NEDOS = 4000
   ISMEAR = 0
   SIGMA = 0.01
   GGA = PE
   LHFCALC = .TRUE.
   AEXX = 0.25
   HFSCREEN = 0.2
   LOPTICS = .TRUE.
   CSHIFT = 0.1
   NBANDS = 128
   NCORE = 16
   LREAL = .FALSE.

 POTCAR:    PAW_PBE B 06Sep2000
 POTCAR:    PAW_PBE C 08Apr2002
 POTCAR:    PAW_PBE B 06Sep2000
   VRHFIN =B: s2p1

   TITEL  = PAW_PBE B 06Sep2000
   POMASS =   10.811; ZVAL   =    3.000    mass and valenz
   ENMAX  =  318.614; ENMIN  =  238.960 eV

   TITEL  = PAW_PBE C 08Apr2002
   POMASS =   12.011; ZVAL   =    4.000    mass and valenz
   ENMAX  =  400.000; ENMIN  =  300.000 eV

  PAW_PBE B 06Sep2000                   :
  PAW_PBE C 08Apr2002                   :

 POSCAR: Graphene-Borophene Top with lattice para
  positions in direct lattice
  velocities in cartesian coordinates
 exchange correlation table for  LEXCH =        8
   RHO(1)=    0.500       N(1)  =     2000
   RHO(2)=  100.500       N(2)  =     4000

 ion  position               nearest neighbor table
   1  0.669  0.000  0.101-   3 1.65   6 1.65   7 1.68   8 1.68   2 1.68
   2  0.332  0.000  0.101-   5 1.65   4 1.65   7 1.68   8 1.68   1 1.68
   3  1.000  0.331  0.101-   1 1.65   5 1.65   7 1.68   8 1.68   4 1.68
   4  1.000  0.668  0.101-   6 1.65   2 1.65   7 1.68   8 1.68   3 1.68
   5  0.332  0.331  0.101-   2 1.65   3 1.65   7 1.68   8 1.68   6 1.68
   6  0.669  0.668  0.101-   4 1.65   1 1.65   7 1.68   8 1.68   5 1.68
   7  0.667  0.333  0.088-   5 1.68   6 1.68   2 1.68   1 1.68   4 1.68   3 1.68
   8  0.333  0.667  0.114-   5 1.68   6 1.68   3 1.68   4 1.68   1 1.68   2 1.68
   9  0.167  0.333  0.335-  14 1.44  10 1.44  12 1.44
  10  0.333  0.167  0.334-  11 1.44   9 1.44  13 1.44
  11  0.167  0.833  0.335-  10 1.44  16 1.44  12 1.44
  12  0.333  0.667  0.335-   9 1.44  15 1.44  11 1.44
  13  0.667  0.333  0.334-  10 1.44  16 1.44  14 1.44
  14  0.833  0.167  0.334-   9 1.44  15 1.44  13 1.44
  15  0.667  0.833  0.335-  14 1.44  16 1.44  12 1.44
  16  0.833  0.667  0.334-  11 1.44  15 1.44  13 1.44

  LATTYP: Found a hexagonal cell.
 ALAT       =     4.9790000000
 C/A-ratio  =     3.0126531432

  Lattice vectors:

 A1 = (   4.3119404854,   2.4895000000,   0.0000000000)
 A2 = (  -4.3119404854,   2.4895000000,   0.0000000000)
 A3 = (   0.0000000000,   0.0000000000,  15.0000000000)

Analysis of symmetry for initial positions (statically):
 Subroutine PRICEL returns:
 Original cell was already a primitive cell.

 Routine SETGRP: Setting up the symmetry group for a
 hexagonal supercell.

 Subroutine GETGRP returns: Found  6 space group operations
 (whereof  6 operations were pure point group operations)
 out of a pool of 24 trial point group operations.

The static configuration has the point symmetry C_3v.

Analysis of symmetry for dynamics (positions and initial velocities):
 Subroutine PRICEL returns:
 Original cell was already a primitive cell.

 Routine SETGRP: Setting up the symmetry group for a
 hexagonal supercell.

 Subroutine GETGRP returns: Found  6 space group operations
 (whereof  6 operations were pure point group operations)
 out of a pool of 24 trial point group operations.

The dynamic configuration has the point symmetry C_3v.

 Subroutine INISYM returns: Found  6 space group operations
 (whereof  6 operations are pure point group operations),
 and found     1 'primitive' translations

                                     Primitive cell

  volume of cell :     322.0373

  direct lattice vectors                    reciprocal lattice vectors
     4.311940485  2.489500000  0.000000000     0.115957074  0.200843543  0.000000000
    -4.311940485  2.489500000  0.000000000    -0.115957074  0.200843543  0.000000000
     0.000000000  0.000000000 15.000000000     0.000000000  0.000000000  0.066666667

  length of vectors
     4.979000000  4.979000000 15.000000000     0.231914147  0.231914147  0.066666667

  position of ions in fractional coordinates (direct lattice)
     0.668529486  0.000031744  0.101490874
     0.331501257  0.000031744  0.101490874
     0.999968256  0.331469514  0.101490874
     0.999968256  0.668497743  0.101490874
     0.331501257  0.331469514  0.101490874
     0.668529486  0.668497743  0.101490874
     0.666666000  0.333333000  0.088455217
     0.333333000  0.666666000  0.114424057
     0.166653576  0.333308152  0.334568638
     0.333330518  0.166664759  0.334466239
     0.166653576  0.833345424  0.334568638
     0.333333000  0.666666000  0.334626021
     0.666666000  0.333333000  0.334444829
     0.833334241  0.166664759  0.334466239
     0.666690848  0.833345424  0.334568638
     0.833334241  0.666668482  0.334466239

  ion indices of the primitive-cell ions
   primitive index   ion index
                 1           1
                 2           2
                 3           3
                 4           4
                 5           5
                 6           6
                 7           7
                 8           8
                 9           9
                10          10
                11          11
                12          12
                13          13
                14          14
                15          15
                16          16

 KPOINTS: k-points

Automatic generation of k-mesh.
 Grid dimensions read from file:
 generate k-points for:   17   17    1

 Generating k-lattice:

  Cartesian coordinates                     Fractional coordinates (reciprocal lattice)
     0.006821004  0.011814326  0.000000000     0.058823529 -0.000000000  0.000000000
    -0.006821004  0.011814326  0.000000000    -0.000000000  0.058823529  0.000000000
     0.000000000  0.000000000  0.066666667     0.000000000  0.000000000  1.000000000

  Length of vectors
     0.013642009  0.013642009  0.066666667

  Shift w.r.t. Gamma in fractional coordinates (k-lattice)
     0.000000000  0.000000000  0.000000000

 Subroutine IBZKPT returns following result:

 Found     33 irreducible k-points:

 Following reciprocal coordinates:
            Coordinates               Weight
  0.000000  0.000000  0.000000      1.000000
  0.058824  0.000000  0.000000      6.000000
  0.117647 -0.000000  0.000000      6.000000
  0.176471 -0.000000  0.000000      6.000000
  0.235294 -0.000000  0.000000      6.000000
  0.294118  0.000000  0.000000      6.000000
  0.352941  0.000000  0.000000      6.000000
  0.411765 -0.000000  0.000000      6.000000
  0.470588 -0.000000  0.000000      6.000000
  0.058824  0.058824  0.000000      6.000000
  0.117647  0.058824  0.000000     12.000000
  0.176471  0.058824  0.000000     12.000000
  0.235294  0.058824  0.000000     12.000000
  0.294118  0.058824  0.000000     12.000000
  0.352941  0.058824  0.000000     12.000000
  0.411765  0.058824  0.000000     12.000000
  0.470588  0.058824  0.000000      6.000000
  0.117647  0.117647  0.000000      6.000000
  0.176471  0.117647  0.000000     12.000000
  0.235294  0.117647  0.000000     12.000000
  0.294118  0.117647  0.000000     12.000000
  0.352941  0.117647  0.000000     12.000000
  0.411765  0.117647  0.000000     12.000000
  0.176471  0.176471  0.000000      6.000000
  0.235294  0.176471  0.000000     12.000000
  0.294118  0.176471  0.000000     12.000000
  0.352941  0.176471  0.000000     12.000000
  0.411765  0.176471  0.000000      6.000000
  0.235294  0.235294  0.000000      6.000000
  0.294118  0.235294  0.000000     12.000000
  0.352941  0.235294  0.000000     12.000000
  0.294118  0.294118  0.000000      6.000000
  0.352941  0.294118  0.000000      6.000000

 Following cartesian coordinates:
            Coordinates               Weight
  0.000000  0.000000  0.000000      1.000000
  0.006821  0.011814  0.000000      6.000000
  0.013642  0.023629  0.000000      6.000000
  0.020463  0.035443  0.000000      6.000000
  0.027284  0.047257  0.000000      6.000000
  0.034105  0.059072  0.000000      6.000000
  0.040926  0.070886  0.000000      6.000000
  0.047747  0.082700  0.000000      6.000000
  0.054568  0.094515  0.000000      6.000000
  0.000000  0.023629  0.000000      6.000000
  0.006821  0.035443  0.000000     12.000000
  0.013642  0.047257  0.000000     12.000000
  0.020463  0.059072  0.000000     12.000000
  0.027284  0.070886  0.000000     12.000000
  0.034105  0.082700  0.000000     12.000000
  0.040926  0.094515  0.000000     12.000000
  0.047747  0.106329  0.000000      6.000000
  0.000000  0.047257  0.000000      6.000000
  0.006821  0.059072  0.000000     12.000000
  0.013642  0.070886  0.000000     12.000000
  0.020463  0.082700  0.000000     12.000000
  0.027284  0.094515  0.000000     12.000000
  0.034105  0.106329  0.000000     12.000000
  0.000000  0.070886  0.000000      6.000000
  0.006821  0.082700  0.000000     12.000000
  0.013642  0.094515  0.000000     12.000000
  0.020463  0.106329  0.000000     12.000000
  0.027284  0.118143  0.000000      6.000000
  0.000000  0.094515  0.000000      6.000000
  0.006821  0.106329  0.000000     12.000000
  0.013642  0.118143  0.000000     12.000000
  0.000000  0.118143  0.000000      6.000000
  0.006821  0.129958  0.000000      6.000000

 Subroutine IBZKPT_HF returns following result:

 Found    289 k-points in 1st BZ
 the following    289 k-points will be used (e.g. in the exchange kernel)
 Following reciprocal coordinates:   # in IRBZ
  0.000000  0.000000  0.000000    0.00346021   1 t-inv F
  0.058824  0.000000  0.000000    0.00346021   2 t-inv F
  0.117647 -0.000000  0.000000    0.00346021   3 t-inv F
  0.176471 -0.000000  0.000000    0.00346021   4 t-inv F
  0.235294 -0.000000  0.000000    0.00346021   5 t-inv F
  0.294118  0.000000  0.000000    0.00346021   6 t-inv F
  0.352941  0.000000  0.000000    0.00346021   7 t-inv F
  0.411765 -0.000000  0.000000    0.00346021   8 t-inv F
  0.470588 -0.000000  0.000000    0.00346021   9 t-inv F
  0.058824  0.058824  0.000000    0.00346021  10 t-inv F
  0.117647  0.058824  0.000000    0.00346021  11 t-inv F
  0.176471  0.058824  0.000000    0.00346021  12 t-inv F
  0.235294  0.058824  0.000000    0.00346021  13 t-inv F
  0.294118  0.058824  0.000000    0.00346021  14 t-inv F
  0.352941  0.058824  0.000000    0.00346021  15 t-inv F
  0.411765  0.058824  0.000000    0.00346021  16 t-inv F
  0.470588  0.058824  0.000000    0.00346021  17 t-inv F
  0.117647  0.117647  0.000000    0.00346021  18 t-inv F
  0.176471  0.117647  0.000000    0.00346021  19 t-inv F
  0.235294  0.117647  0.000000    0.00346021  20 t-inv F
  0.294118  0.117647  0.000000    0.00346021  21 t-inv F
  0.352941  0.117647  0.000000    0.00346021  22 t-inv F
  0.411765  0.117647  0.000000    0.00346021  23 t-inv F
  0.176471  0.176471  0.000000    0.00346021  24 t-inv F
  0.235294  0.176471  0.000000    0.00346021  25 t-inv F
  0.294118  0.176471  0.000000    0.00346021  26 t-inv F
  0.352941  0.176471  0.000000    0.00346021  27 t-inv F
  0.411765  0.176471  0.000000    0.00346021  28 t-inv F
  0.235294  0.235294  0.000000    0.00346021  29 t-inv F
[...]
  670          m_sumb_d                              0.004453                         22   4

 Flat profile

 m_alltoallv_z                      101566.411260    ********
 m_sumb_d                            59920.914108    ********
 dfftw_execute                       13026.470629    ********
 fftbas_plan_mpi                      5180.763527    ********
 m_ireduce_z_to                       4275.965994      278784
 map_scatter                          3552.080458    ********
 pw_charge_trace_mu_                  3401.240246     2555916
 vhamil_trace                         2935.346089    ********
 map_gather                           2302.858747    ********
 rpromu_hf                            1743.338416     2670360
 racc0mu_hf_                          1607.806139     2555916
 apply_gfac_exchange                  1480.602020    ********
 fock_fwd                              765.005910        2178
 map_forward                           341.172781    ********
 map_backward                          318.529769    ********
 calc_dllmm_trans                      230.996131    ********
 depsum_two_bands_rholm_trace_         225.777456    ********
 fft3d_mpi                             202.077627    ********
 fftbas_mpi                            192.702876    ********
 lr_optic                              177.925998           1
 fock_set_gfac_vkpt                    121.812133      810645
 pw_charge_trace                       106.158089     6408864
 rpro1_hf                              102.873686    12817728
 racc0_hf                              100.885602    12817728
 depsum_two_bands_rholm_trace           65.850582    ********
 pdssyex_zheevx                         64.363847        1089
 depsum_two_bands_rholm_trace_m         61.810642     2555916
 m_ibcast_z_from                        59.262192      283404
 apply_gfac_qder                        49.406749     6408864
 overl_fock                             43.586673    ********
 apply_gfac                             43.512504    12817728
 phaser_hf                              40.270781      810645
 elmin_all                              34.455860           1
 m_alltoall_d                           20.598076      448503
 total_time                             19.347556           1
 edwav                                  10.364202          32
 fock_all_dblbuf                         9.574691          33
 fock_charge_mu                          8.293699     2555916
 w1_copy                                 7.544394      358017
 bg_ppotrf_trtri                         7.498410        1089
 fftwav_mpi                              4.376862      375606
 fock_force                              4.302254           1
 waitgth                                 4.153608        2178
 apply_gfac_weight                       4.051249     1068144
 racc0mu_hf                              3.893149     2555916
 waitred                                 3.866472        2178
 pw_charge_trace_mu                      3.428193     2555916
 dllmm_trans_eccp_nl_fock                3.302090      114444
 depsum_two_bands_rholm_trace_m          1.792354     2555916
 eccp                                    1.419159       50688
 eccp_nl_fock                            1.262928     3204432
 m_bcast_z                               1.212095        4753
 gemm                                    0.943747      604560
 pw_charge                               0.941009       38148
 fock_set_fsg                            0.792582           2
 soft_charge_sym                         0.711306          33
 work_mul_crexp                          0.700112      604560
 orth1                                   0.659560       17028
 lincom                                  0.652439        2145
 wfinit                                  0.648189           1
 proj1                                   0.641859       23661
 ggaall_grid                             0.587646          35
 eddiag                                  0.536012           1
 phase                                   0.489211        2476
 eddiag_lr                               0.480042           3
 vnlac0                                  0.438143       37785
 crexp_mul_wave                          0.386580      378576
 vhamil                                  0.347068       17424
 orth1_nosubindex                        0.291362        4356
 potlok                                  0.264563          34
 lincom_slice                            0.251237        2178
 lrf_rphi0                               0.224391           3
 redis_proj                              0.221653       67716
 depsum_sym                              0.214483          33
 fornl                                   0.210310           1
 reduce                                  0.202863        2178
 fft_and_gather                          0.192223        2211
 force_and_stress                        0.179879           1
 w1_dscal                                0.174242       16896
 fock_bck                                0.170828        2178
 projxyz                                 0.160138          33
 redis_pw                                0.151448       72006
 orthch                                  0.090873          33
 lrf_commutator                          0.073779           3
 densta                                  0.073334          35
 inisym                                  0.061610           1
 wrk_allocate                            0.058893           1
 fftext_mpi                              0.044592       36234
 m_bcast_d                               0.040595          37
 spher                                   0.035147          16
 contraction                             0.033913      114444
 kinhamil                                0.022106       17424
 fft_gq                                  0.021102          33
 hamilt_local                            0.020052       17424
 forloc                                  0.019782           1
 orth1_distri                            0.017856        4356
 hamiltmu_commutator                     0.017196         198
 posmap                                  0.016891           2
 lincom_distri                           0.015709        1089
 recon_slice                             0.012739        2178
 crpa_reader                             0.011983           1
 augmentation_charge                     0.011655          33
 overl                                   0.011593       20229
 setdij_                                 0.011070          42
 overl1                                  0.006352       20196
 spher_der                               0.005924           6
 m_sum_g                                 0.003960        6534
 set_dd_paw                              0.003611          35
 brgrid                                  0.002653           1
 vectorpot                               0.002634           1
 choleski                                0.002271        1089
 pothar                                  0.002195          34
 distri_slice                            0.002171        4356
 set_charge                              0.001874          33
 set_dd_magatom                          0.001444           2
 forhar                                  0.001386           1
 fewald                                  0.001218           1
 FERMAT_RAZOR                            0.000780           1
 redis_pw_all                            0.000637          32
 rspher_all                              0.000588           4
 stufak                                  0.000360           1
 fftbrc_mpi                              0.000311         522
 proj                                    0.000300          33
 rsp                                     0.000271           1
 overl1_c                                0.000193         693
 rcp                                     0.000035           1
 wrk_deallocate                          0.000031           1
 redis_pw_over_bands                     0.000031          33
 proall                                  0.000030           1
 potlok_metagga                          0.000015          33
 fordep                                  0.000015           1
 shift_bands_between_low_high            0.000002          33
 rotate_active_occupied_orbital          0.000001           1
  summed up times    204476.145855904

 Accumulative profile

 total_time                         204476.145856           1
 elmin_all                          187090.220909           1
 fock_all_dblbuf                    186811.292156          33
 fock_fwd                           182453.682781        2178
 edwav                              181335.024292          32
 fft3d_mpi                          126683.067987    ********
 fftbas_mpi                         126473.613654    ********
 fftbas_plan_mpi                    126288.287173    ********
 m_alltoallv_z                      101566.411260    ********
 m_sumb_d                            59920.914108    ********
 map_forward                         56280.540874    ********
 map_backward                        51800.512141    ********
 fock_charge_mu                      28714.659327     2555916
 rpromu_hf                           28203.316248     2670360
 racc0mu_hf                          24972.207505     2555916
 racc0mu_hf_                         24968.314356     2555916
 lr_optic                            16063.603251           1
 dfftw_execute                       13026.470629    ********
 eddiag                               5650.441680           1
 reduce                               4276.168857        2178
 m_ireduce_z_to                       4275.965994      278784
 map_scatter                          3552.080458    ********
 rpro1_hf                             3488.013544    12817728
 pw_charge_trace_mu                   3404.668439     2555916
 pw_charge_trace_mu_                  3401.240246     2555916
 racc0_hf                             3207.477543    12817728
 vhamil_trace                         2935.346089    ********
 map_gather                           2302.858747    ********
 apply_gfac_exchange                  1480.602020    ********
 force_and_stress                     1295.110441           1
 fock_force                           1294.162909           1
 depsum_two_bands_rholm_trace_m        329.489684     2555916
 depsum_two_bands_rholm_trace_m        327.697329     2555916
 depsum_two_bands_rholm_trace          291.628038    ********
 calc_dllmm_trans                      230.996131    ********
 depsum_two_bands_rholm_trace_         225.777456    ********
 fftwav_mpi                            197.813106      375606
 fock_set_gfac_vkpt                    162.082914      810645
 pw_charge_trace                       106.158089     6408864
 fft_and_gather                         85.732002        2211
 set_charge                             67.552391          33
 pdssyex_zheevx                         64.363847        1089
 soft_charge_sym                        62.252268          33
 m_ibcast_z_from                        59.262192      283404
 apply_gfac_qder                        49.406749     6408864
 overl_fock                             43.586673    ********
 apply_gfac                             43.512504    12817728
 phaser_hf                              40.270781      810645
 m_alltoall_d                           20.598076      448503
 fock_bck                               17.890726        2178
 orthch                                 16.523354          33
 redis_pw                               15.865461       72006
 vnlac0                                 15.805392       37785
 fftext_mpi                             14.018850       36234
 dllmm_trans_eccp_nl_fock               11.443332      114444
 hamilt_local                            8.167454       17424
 m_sum_g                                 7.962680        6534
 kinhamil                                7.800334       17424
 w1_copy                                 7.544394      358017
 choleski                                7.500681        1089
 bg_ppotrf_trtri                         7.498410        1089
 fftbrc_mpi                              7.376706         522
 redis_proj                              5.105716       67716
 depsum_sym                              4.819637          33
 proj1                                   4.797769       23661
 orth1_distri                            4.582061        4356
 fft_gq                                  4.188361          33
 waitgth                                 4.153608        2178
 apply_gfac_weight                       4.051249     1068144
 lincom_distri                           3.971693        1089
 waitred                                 3.866472        2178
 potlok                                  3.335559          34
 lrf_rphi0                               3.118637           3
 eccp                                    1.957904       50688
 lrf_commutator                          1.618822           3
 wfinit                                  1.552190           1
 eccp_nl_fock                            1.262928     3204432
 eddiag_lr                               1.254389           3
 set_dd_paw                              1.243728          35
 m_bcast_z                               1.212095        4753
 gemm                                    0.943747      604560
 pw_charge                               0.941009       38148
 fock_set_fsg                            0.850012           2
 hamiltmu_commutator                     0.841703         198
 work_mul_crexp                          0.700112      604560
 orth1                                   0.659560       17028
 lincom                                  0.652439        2145
 ggaall_grid                             0.587646          35
 wrk_allocate                            0.507609           1
 fornl                                   0.493747           1
 phase                                   0.489211        2476
 augmentation_charge                     0.478612          33
 densta                                  0.448152          35
 crexp_mul_wave                          0.386580      378576
 vhamil                                  0.347068       17424
 orth1_nosubindex                        0.291362        4356
 redis_pw_over_bands                     0.274500          33
 redis_pw_all                            0.274469          32
 projxyz                                 0.265236          33
 lincom_slice                            0.251237        2178
 w1_dscal                                0.174242       16896
 inisym                                  0.078501           1
 setdij_                                 0.063154          42
 proall                                  0.043078           1
 m_bcast_d                               0.040595          37
 pothar                                  0.039149          34
 proj                                    0.036664          33
 spher                                   0.035147          16
 contraction                             0.033913      114444
 spher_der                               0.031780           6
 forloc                                  0.019975           1
 posmap                                  0.016891           2
 recon_slice                             0.012739        2178
 crpa_reader                             0.011983           1
 overl                                   0.011593       20229
 overl1                                  0.006352       20196
 fordep                                  0.004224           1
 fewald                                  0.002835           1
 brgrid                                  0.002653           1
 vectorpot                               0.002634           1
 forhar                                  0.002373           1
 distri_slice                            0.002171        4356
 set_dd_magatom                          0.001444           2
 FERMAT_RAZOR                            0.000780           1
 rspher_all                              0.000588           4
 stufak                                  0.000360           1
 rsp                                     0.000271           1
 overl1_c                                0.000193         693
 rcp                                     0.000035           1
 wrk_deallocate                          0.000031           1
 potlok_metagga                          0.000015          33
 shift_bands_between_low_high            0.000002          33
 rotate_active_occupied_orbital          0.000001           1

Profiling took **********505.699965  0.041314  0.041229 seconds
Profiling took 896.371665 seconds