 vasp.6.3.2 27Jun22 (build Dec 22 2022 13:13:19) complex

 executed on             LinuxIFC date 2024.03.04  17:42:32

 INCAR:
   SYSTEM = SC
   ISTART = 0
   ICHARG = 2
   PREC = Accurate
   ENCUT = 450
   LCHARG = .TRUE.
   LWAVE = .TRUE.
   ALGO = Normal
   NELM = 64
   EDIFF = 1E-6
   EDIFFG = -1E-3
   SIGMA = 0.1
   ISMEAR = 0
   SYMPREC = 1E-6
   IBRION = -1
   GGA = PE
   IVDW = 12

 POTCAR:    PAW_PBE B 06Sep2000
 POTCAR:    PAW_PBE C 08Apr2002
 POTCAR:    PAW_PBE B 06Sep2000
   VRHFIN =B: s2p1

   TITEL  = PAW_PBE B 06Sep2000
   POMASS =   10.811; ZVAL   =    3.000    mass and valenz
   ENMAX  =  318.614; ENMIN  =  238.960 eV

   TITEL  = PAW_PBE C 08Apr2002
   POMASS =   12.011; ZVAL   =    4.000    mass and valenz
   ENMAX  =  400.000; ENMIN  =  300.000 eV

  PAW_PBE B 06Sep2000                   :
  PAW_PBE C 08Apr2002                   :

 POSCAR: Graphene-B4C3 Top with lattice parameter
  positions in direct lattice
  velocities in cartesian coordinates
 exchange correlation table for  LEXCH =        8
   RHO(1)=    0.500       N(1)  =     2000
   RHO(2)=  100.500       N(2)  =     4000

 VTST: version 4.2, (08/11/21)

 CHAIN: initializing optimizer

 OPT: Using VASP Dynamics algorithm
 CHAIN: Read ICHAIN            0

 POSCAR: Graphene-B4C3 Top with lattice parameter
  positions in direct lattice
  velocities in cartesian coordinates

 ion  position               nearest neighbor table
   1  0.004  0.003  0.102-   5 1.57   6 1.57   7 1.57   3 1.72   2 1.72   4 1.72
   2  0.359  0.003  0.101-   6 1.56   5 1.65   7 1.65   1 1.72
   3  0.004  0.358  0.101-   7 1.56   6 1.65   5 1.65   1 1.72
   4  0.649  0.648  0.101-   5 1.56   7 1.65   6 1.65   1 1.72
   5  0.328  0.326  0.101-   4 1.56   1 1.57   2 1.65   3 1.65
   6  0.681  0.003  0.101-   2 1.56   1 1.57   3 1.65   4 1.65
   7  0.004  0.679  0.101-   3 1.56   1 1.57   4 1.65   2 1.65
   8  0.000  0.500  0.335-   9 1.40  11 1.40  13 1.40
   9  0.167  0.333  0.335-   8 1.40  12 1.40  10 1.40
  10  0.000  0.000  0.335-  11 1.40   9 1.40  15 1.40
  11  0.167  0.833  0.335-  14 1.40   8 1.40  10 1.40
  12  0.500  0.500  0.335-  15 1.40   9 1.40  13 1.40
  13  0.667  0.333  0.335-  12 1.40   8 1.40  14 1.40
  14  0.500  0.000  0.335-  11 1.40  15 1.40  13 1.40
  15  0.667  0.833  0.335-  12 1.40  14 1.40  10 1.40

  LATTYP: Found a hexagonal cell.
 ALAT       =     4.8460000000
 C/A-ratio  =     3.0953363599

  Lattice vectors:

 A1 = (   4.1967591067,   2.4230000000,   0.0000000000)
 A2 = (  -4.1967591067,   2.4230000000,   0.0000000000)
 A3 = (   0.0000000000,   0.0000000000,  15.0000000000)

Analysis of symmetry for initial positions (statically):
 Subroutine PRICEL returns:
 Original cell was already a primitive cell.

 Routine SETGRP: Setting up the symmetry group for a
 hexagonal supercell.

 Subroutine GETGRP returns: Found  1 space group operations
 (whereof  1 operations were pure point group operations)
 out of a pool of 24 trial point group operations.

The static configuration has the point symmetry C_1 .

Analysis of symmetry for dynamics (positions and initial velocities):
 Subroutine PRICEL returns:
 Original cell was already a primitive cell.

 Routine SETGRP: Setting up the symmetry group for a
 hexagonal supercell.

 Subroutine GETGRP returns: Found  1 space group operations
 (whereof  1 operations were pure point group operations)
 out of a pool of 24 trial point group operations.

The dynamic configuration has the point symmetry C_1 .

 Subroutine INISYM returns: Found  1 space group operations
 (whereof  1 operations are pure point group operations),
 and found     1 'primitive' translations

                                     Primitive cell

  volume of cell :     305.0624

  direct lattice vectors                    reciprocal lattice vectors
     4.196759107  2.423000000  0.000000000     0.119139552  0.206355757  0.000000000
    -4.196759107  2.423000000  0.000000000    -0.119139552  0.206355757  0.000000000
     0.000000000  0.000000000 15.000000000     0.000000000  0.000000000  0.066666667

  length of vectors
     4.846000000  4.846000000 15.000000000     0.238279104  0.238279104  0.066666667

  position of ions in fractional coordinates (direct lattice)
     0.004056526  0.002697343  0.101501060
     0.359245494  0.002978704  0.100711409
     0.003767832  0.357599513  0.100712169
     0.649148177  0.647506274  0.100708602
     0.327784757  0.326144145  0.100730862
     0.680601878  0.002974890  0.100730542
     0.003770558  0.678959212  0.100727858
     0.000132595  0.500063036  0.335115331
     0.166783864  0.333452843  0.335150012
     0.000115386  0.000071038  0.335075930
     0.166825953  0.833402697  0.335153906
     0.500125878  0.500099855  0.335118110
     0.666781160  0.333405941  0.335013099
     0.500087443  0.000053650  0.335113676
     0.666733165  0.833358192  0.335150101

  ion indices of the primitive-cell ions
   primitive index   ion index
                 1           1
                 2           2
                 3           3
                 4           4
                 5           5
                 6           6
                 7           7
                 8           8
                 9           9
                10          10
                11          11
                12          12
                13          13
                14          14
                15          15

 KPOINTS: k-points

Automatic generation of k-mesh.
 Grid dimensions read from file:
 generate k-points for:   17   17    1

 Generating k-lattice:

  Cartesian coordinates                     Fractional coordinates (reciprocal lattice)
     0.007008209  0.012138574  0.000000000     0.058823529  0.000000000  0.000000000
    -0.007008209  0.012138574  0.000000000     0.000000000  0.058823529  0.000000000
     0.000000000  0.000000000  0.066666667     0.000000000  0.000000000  1.000000000

  Length of vectors
     0.014016418  0.014016418  0.066666667

  Shift w.r.t. Gamma in fractional coordinates (k-lattice)
     0.000000000  0.000000000  0.000000000

 Subroutine IBZKPT returns following result:

 Found    145 irreducible k-points:

 Following reciprocal coordinates:
            Coordinates               Weight
  0.000000  0.000000  0.000000      1.000000
  0.058824  0.000000  0.000000      2.000000
  0.000000  0.058824  0.000000      2.000000
 -0.058824  0.058824  0.000000      2.000000
  0.117647 -0.000000  0.000000      2.000000
 -0.000000  0.117647  0.000000      2.000000
 -0.117647  0.117647  0.000000      2.000000
  0.176471 -0.000000  0.000000      2.000000
 -0.000000  0.176471  0.000000      2.000000
 -0.176471  0.176471  0.000000      2.000000
  0.235294 -0.000000  0.000000      2.000000
 -0.000000  0.235294  0.000000      2.000000
 -0.235294  0.235294  0.000000      2.000000
  0.294118  0.000000  0.000000      2.000000
  0.000000  0.294118  0.000000      2.000000
 -0.294118  0.294118  0.000000      2.000000
  0.352941  0.000000  0.000000      2.000000
 -0.000000  0.352941  0.000000      2.000000
 -0.352941  0.352941  0.000000      2.000000
  0.411765  0.000000  0.000000      2.000000
  0.000000  0.411765  0.000000      2.000000
 -0.411765  0.411765  0.000000      2.000000
  0.470588 -0.000000  0.000000      2.000000
 -0.000000  0.470588  0.000000      2.000000
 -0.470588  0.470588  0.000000      2.000000
  0.058824  0.058824  0.000000      2.000000
 -0.058824  0.117647  0.000000      2.000000
 -0.117647  0.058824  0.000000      2.000000
  0.117647  0.058824  0.000000      2.000000
 -0.058824  0.176471  0.000000      2.000000
 -0.176471  0.117647  0.000000      2.000000
 -0.117647  0.176471  0.000000      2.000000
  0.058824  0.117647  0.000000      2.000000
  0.176471 -0.058824  0.000000      2.000000
  0.176471  0.058824  0.000000      2.000000
 -0.058824  0.235294  0.000000      2.000000
 -0.235294  0.176471  0.000000      2.000000
 -0.176471  0.235294  0.000000      2.000000
  0.058824  0.176471  0.000000      2.000000
  0.235294 -0.058824  0.000000      2.000000
  0.235294  0.058824  0.000000      2.000000
 -0.058824  0.294118  0.000000      2.000000
 -0.294118  0.235294  0.000000      2.000000
 -0.235294  0.294118  0.000000      2.000000
  0.058824  0.235294  0.000000      2.000000
  0.294118 -0.058824  0.000000      2.000000
  0.294118  0.058824  0.000000      2.000000
 -0.058824  0.352941  0.000000      2.000000
 -0.352941  0.294118  0.000000      2.000000
 -0.294118  0.352941  0.000000      2.000000
  0.058824  0.294118  0.000000      2.000000
  0.352941 -0.058824  0.000000      2.000000
  0.352941  0.058824  0.000000      2.000000
 -0.058824  0.411765  0.000000      2.000000
 -0.411765  0.352941  0.000000      2.000000
 -0.352941  0.411765  0.000000      2.000000
  0.058824  0.352941  0.000000      2.000000
  0.411765 -0.058824  0.000000      2.000000
  0.411765  0.058824  0.000000      2.000000
 -0.058824  0.470588  0.000000      2.000000
[...]
 -0.294118 -0.470588  0.000000      2.000000
  0.235294  0.294118  0.000000      2.000000
 -0.470588 -0.235294  0.000000      2.000000
  0.352941  0.235294  0.000000      2.000000
 -0.235294 -0.411765  0.000000      2.000000
  0.411765  0.352941  0.000000      2.000000
 -0.352941 -0.411765  0.000000      2.000000
  0.235294  0.352941  0.000000      2.000000
 -0.411765 -0.235294  0.000000      2.000000
  0.294118  0.294118  0.000000      2.000000
 -0.294118 -0.411765  0.000000      2.000000
  0.411765  0.294118  0.000000      2.000000
  0.352941  0.294118  0.000000      2.000000
 -0.294118 -0.352941  0.000000      2.000000
  0.352941  0.352941  0.000000      2.000000

 Following cartesian coordinates:
            Coordinates               Weight
  0.000000  0.000000  0.000000      1.000000
  0.007008  0.012139  0.000000      2.000000
 -0.007008  0.012139  0.000000      2.000000
 -0.014016 -0.000000  0.000000      2.000000
  0.014016  0.024277  0.000000      2.000000
 -0.014016  0.024277  0.000000      2.000000
 -0.028033  0.000000  0.000000      2.000000
  0.021025  0.036416  0.000000      2.000000
 -0.021025  0.036416  0.000000      2.000000
 -0.042049  0.000000  0.000000      2.000000
  0.028033  0.048554  0.000000      2.000000
 -0.028033  0.048554  0.000000      2.000000
 -0.056066  0.000000  0.000000      2.000000
  0.035041  0.060693  0.000000      2.000000
 -0.035041  0.060693  0.000000      2.000000
 -0.070082  0.000000  0.000000      2.000000
  0.042049  0.072831  0.000000      2.000000
 -0.042049  0.072831  0.000000      2.000000
 -0.084099 -0.000000  0.000000      2.000000
  0.049057  0.084970  0.000000      2.000000
 -0.049057  0.084970  0.000000      2.000000
 -0.098115 -0.000000  0.000000      2.000000
  0.056066  0.097109  0.000000      2.000000
 -0.056066  0.097109  0.000000      2.000000
 -0.112131  0.000000  0.000000      2.000000
 -0.000000  0.024277  0.000000      2.000000
 -0.021025  0.012139  0.000000      2.000000
 -0.021025 -0.012139  0.000000      2.000000
  0.007008  0.036416  0.000000      2.000000
 -0.028033  0.024277  0.000000      2.000000
 -0.035041 -0.012139  0.000000      2.000000
 -0.035041  0.012139  0.000000      2.000000
 -0.007008  0.036416  0.000000      2.000000
[...]
 k-point  34 :   0.1765-0.0588 0.0000  plane waves:    6648
 k-point  35 :   0.1765 0.0588 0.0000  plane waves:    6646
 k-point  36 :  -0.0588 0.2353 0.0000  plane waves:    6646
 k-point  37 :  -0.2353 0.1765 0.0000  plane waves:    6646
 k-point  38 :  -0.1765 0.2353 0.0000  plane waves:    6646
 k-point  39 :   0.0588 0.1765 0.0000  plane waves:    6646
 k-point  40 :   0.2353-0.0588 0.0000  plane waves:    6646
 k-point  41 :   0.2353 0.0588 0.0000  plane waves:    6604
 k-point  42 :  -0.0588 0.2941 0.0000  plane waves:    6604
 k-point  43 :  -0.2941 0.2353 0.0000  plane waves:    6604
 k-point  44 :  -0.2353 0.2941 0.0000  plane waves:    6604
 k-point  45 :   0.0588 0.2353 0.0000  plane waves:    6604
 k-point  46 :   0.2941-0.0588 0.0000  plane waves:    6604
 k-point  47 :   0.2941 0.0588 0.0000  plane waves:    6601
 k-point  48 :  -0.0588 0.3529 0.0000  plane waves:    6601
 k-point  49 :  -0.3529 0.2941 0.0000  plane waves:    6601
 k-point  50 :  -0.2941 0.3529 0.0000  plane waves:    6601
 k-point  51 :   0.0588 0.2941 0.0000  plane waves:    6601
 k-point  52 :   0.3529-0.0588 0.0000  plane waves:    6601
 k-point  53 :   0.3529 0.0588 0.0000  plane waves:    6589
 k-point  54 :  -0.0588 0.4118 0.0000  plane waves:    6589
 k-point  55 :  -0.4118 0.3529 0.0000  plane waves:    6589
 k-point  56 :  -0.3529 0.4118 0.0000  plane waves:    6589
 k-point  57 :   0.0588 0.3529 0.0000  plane waves:    6589
 k-point  58 :   0.4118-0.0588 0.0000  plane waves:    6589
 k-point  59 :   0.4118 0.0588 0.0000  plane waves:    6604
 k-point  60 :  -0.0588 0.4706 0.0000  plane waves:    6604
[...]
 k-point 131 :  -0.2941-0.4706 0.0000  plane waves:    6606
 k-point 132 :   0.2353 0.2941 0.0000  plane waves:    6606
 k-point 133 :  -0.4706-0.2353 0.0000  plane waves:    6606
 k-point 134 :   0.3529 0.2353 0.0000  plane waves:    6600
 k-point 135 :  -0.2353-0.4118 0.0000  plane waves:    6600
 k-point 136 :   0.4118 0.3529 0.0000  plane waves:    6600
 k-point 137 :  -0.3529-0.4118 0.0000  plane waves:    6600
 k-point 138 :   0.2353 0.3529 0.0000  plane waves:    6600
 k-point 139 :  -0.4118-0.2353 0.0000  plane waves:    6600
 k-point 140 :   0.2941 0.2941 0.0000  plane waves:    6612
 k-point 141 :  -0.2941-0.4118 0.0000  plane waves:    6612
 k-point 142 :   0.4118 0.2941 0.0000  plane waves:    6612
 k-point 143 :   0.3529 0.2941 0.0000  plane waves:    6618
 k-point 144 :  -0.2941-0.3529 0.0000  plane waves:    6618
 k-point 145 :   0.3529 0.3529 0.0000  plane waves:    6618

 maximum and minimum number of plane-waves per node :      6648     6589

 maximum number of plane-waves:      6648
 maximum index in each direction:
   IXMAX=    8   IYMAX=    8   IZMAX=   25
   IXMIN=   -8   IYMIN=   -8   IZMIN=  -25

 serial   3D FFT for wavefunctions
 parallel 3D FFT for charge:
    minimum data exchange during FFTs selected (reduces bandwidth)

 Broyden mixing: mesh for mixing (old mesh)
   NGX = 17   NGY = 17   NGZ = 51
  (NGX  = 72   NGY  = 72   NGZ  =216)
  gives a total of  14739 points

 initial charge density was supplied:
 charge density of overlapping atoms calculated
 number of electron      56.0000000 magnetization
 keeping initial charge density in first step

 Maximum index for augmentation-charges          392 (set IRDMAX)

 First call to EWALD:  gamma=   0.263
 Maximum number of real-space cells 4x 4x 2
 Maximum number of reciprocal cells 2x 2x 6

--------------------------------------- Iteration      1(   1)  ---------------------------------------

 eigenvalue-minimisations  : 13920
 total energy-change (2. order) : 0.1967988E+03  (-0.2589984E+04)
 number of electron      56.0000000 magnetization
 augmentation part       56.0000000 magnetization

 Free energy of the ion-electron system (eV)
  alpha Z        PSCENC =        58.30706670
  Ewald energy   TEWEN  =      4730.33489792
  -Hartree energ DENC   =     -6283.17716923
  -exchange      EXHF   =         0.00000000
  -V(xc)+E(xc)   XCENC  =       172.78395958
  PAW double counting   =      1367.74197220    -1370.58415631
  entropy T*S    EENTRO =        -0.01809123
  eigenvalues    EBANDS =      -381.85305387
  atomic energy  EATOM  =      1903.26342058
  Solvation  Ediel_sol  =         0.00000000
  free energy    TOTEN  =       196.79884634 eV

  energy without entropy =      196.81693757  energy(sigma->0) =      196.80789196

[...]

 eigenvalue-minimisations  : 19824
 total energy-change (2. order) :-0.3195213E+03  (-0.3184819E+03)
 number of electron      56.0000000 magnetization
 augmentation part       56.0000000 magnetization

[...]

 Broyden mixing:
  rms(total) = 0.17325E+01    rms(broyden)= 0.17322E+01
  rms(prec ) = 0.19707E+01
  weight for this iteration     100.00

[...]

 eigenvalues of (default mixing * dielectric matrix)
  average eigenvalue GAMMA=   1.6052
  1.6052

[...]

 eigenvalue-minimisations  : 23808
 total energy-change (2. order) : 0.7659597E-02  (-0.1256385E-02)
 number of electron      56.0000000 magnetization
 augmentation part        1.0359724 magnetization

[...]

 Broyden mixing:
  rms(total) = 0.11502E-04    rms(broyden)= 0.11499E-04
  rms(prec ) = 0.13890E-04
  weight for this iteration     100.00

 eigenvalues of (default mixing * dielectric matrix)
  average eigenvalue GAMMA=   2.4109
  8.3424  4.7395  3.0266  2.5561  2.2958  1.8430  1.7934  1.4860  1.2512  0.9819
  0.9819  1.0360  1.0075

[...]

--------------------------------------- Iteration      1(  19)  ---------------------------------------

 eigenvalue-minimisations  : 22176
 total energy-change (2. order) :-0.2896186E-06  (-0.6096259E-09)
 number of electron      56.0000000 magnetization
 augmentation part        1.0357633 magnetization

 Free energy of the ion-electron system (eV)
  alpha Z        PSCENC =        58.30706670
  Ewald energy   TEWEN  =      4730.33489792
  -Hartree energ DENC   =     -6487.02053028
  -exchange      EXHF   =         0.00000000
  -V(xc)+E(xc)   XCENC  =       180.67205718
  PAW double counting   =      5796.16171122    -5800.59311782
  entropy T*S    EENTRO =        -0.00000041
  eigenvalues    EBANDS =      -506.67512490
  atomic energy  EATOM  =      1903.26342058
  Solvation  Ediel_sol  =         0.00000000
  free energy    TOTEN  =      -125.54961981 eV

  energy without entropy =     -125.54961940  energy(sigma->0) =     -125.54961960

 average (electrostatic) potential at core
  the test charge radii are     0.7672  0.6991
  (the norm of the test charge is              1.0000)
       1 -35.5647       2 -34.1053       3 -34.1053       4 -34.1053       5 -55.3292
       6 -55.3290       7 -55.3291       8 -55.6506       9 -55.6557      10 -55.6584
      11 -55.6555      12 -55.6504      13 -55.6602      14 -55.6507      15 -55.6556

 E-fermi :  -0.3241     XC(G=0):  -5.1729     alpha+bet : -5.0692

 Fermi energy:        -0.3241453493

 k-point     1 :       0.0000    0.0000    0.0000
  band No.  band energies     occupation
      1     -20.2408      2.00000
      2     -17.3877      2.00000
      3     -14.7533      2.00000
      4     -14.7516      2.00000
      5     -14.7516      2.00000
      6     -13.8695      2.00000
      7     -13.8694      2.00000
      8     -13.8676      2.00000
      9     -13.4991      2.00000
     10     -13.4990      2.00000
     11     -10.4224      2.00000
     12      -9.4334      2.00000
     13      -9.4333      2.00000
     14      -8.3806      2.00000
     15      -7.6459      2.00000
     16      -6.8494      2.00000
     17      -6.8493      2.00000
     18      -6.8493      2.00000
     19      -6.7214      2.00000
     20      -3.2998      2.00000
     21      -3.2997      2.00000
     22      -2.9030      2.00000
     23      -2.9029      2.00000
     24      -2.7963      2.00000
     25      -2.7960      2.00000
     26      -2.7878      2.00000
     27      -0.8764      2.00000
     28      -0.8742      2.00000
     29       0.9829      0.00000
     30       0.9903      0.00000
     31       1.3197      0.00000
     32       1.5840      0.00000
     33       1.5893      0.00000
     34       2.0895      0.00000
     35       2.8849      0.00000
     36       3.5049      0.00000
     37       3.5051      0.00000
     38       3.6095      0.00000
     39       4.6126      0.00000
     40       6.7227      0.00000
     41       7.4694      0.00000
     42       7.5941      0.00000
     43       7.6036      0.00000
     44       7.6038      0.00000
     45       7.8779      0.00000
     46       8.3814      0.00000
     47       8.3816      0.00000
     48       8.7880      0.00000

[...]

 k-point   145 :       0.3529    0.3529    0.0000
  band No.  band energies     occupation
      1     -18.3426      2.00000
      2     -18.3391      2.00000
      3     -17.9912      2.00000
      4     -16.7004      2.00000
      5     -14.6915      2.00000
      6     -14.5258      2.00000
      7     -13.2839      2.00000
      8     -12.8372      2.00000
      9     -11.1850      2.00000
     10      -9.3587      2.00000
     11      -9.0173      2.00000
     12      -8.4841      2.00000
     13      -8.1568      2.00000
     14      -7.9791      2.00000
     15      -7.9783      2.00000
     16      -7.1757      2.00000
     17      -6.6640      2.00000
     18      -6.6631      2.00000
     19      -6.2026      2.00000
     20      -6.0749      2.00000
     21      -5.8317      2.00000
     22      -5.7347      2.00000
     23      -5.6220      2.00000
     24      -5.2277      2.00000
     25      -3.9114      2.00000
     26      -3.5581      2.00000
     27      -3.3015      2.00000
     28      -0.6184      1.99997
     29      -0.0299      0.00003
     30       2.6187      0.00000
     31       3.7381      0.00000
     32       3.9233      0.00000
     33       4.2392      0.00000
     34       4.5624      0.00000
     35       4.7228      0.00000
     36       5.4096      0.00000
     37       5.6244      0.00000
     38       5.9220      0.00000
     39       5.9845      0.00000
     40       6.1763      0.00000
     41       6.2993      0.00000
     42       6.5776      0.00000
     43       6.6092      0.00000
     44       6.7038      0.00000
     45       7.0272      0.00000
     46       7.2463      0.00000
     47       7.3135      0.00000
     48       7.7084      0.00000

 soft charge-density along one line, spin component           1
         0         1         2         3         4         5         6         7         8         9
 total charge-density along one line

------------------------ aborting loop because EDIFF is reached ----------------------------------------

         DFTD3 V3.0 Rev 1
 IVDW         = 12
 DF pbe
 parameters
 VDW_S6       =    1.0000
 VDW_S8       =    0.7875
 VDW_A1       =    0.4289
 VDW_A2       =    4.4407
 k1-k3        =   16.0000    1.3333   -4.0000
 VDW_RADIUS   =   50.2022 A
 VDW_CNRADIUS =   21.1671 A
 Edisp (eV)   -1.59129

 E6    (eV) :    -1.0990
 E8    (eV) :    -0.4923
 % E8        : 30.94

  FORCE on cell =-STRESS in cart. coord.  units (eV):
  Direction    XX          YY          ZZ          XY          YZ          ZX
  Alpha Z    58.30707    58.30707    58.30707
  Ewald    6487.59908  6487.59009 -8244.85864    -0.00502     0.00052    -0.00251
  Hartree  6404.23169  6404.22973 -6321.44108    -0.00093     0.00021    -0.00098
  E(xc)    -201.77442  -201.77446  -208.81745    -0.00002    -0.00002    -0.00002
  Local  -13482.83377-13482.82405 13854.69708     0.00522    -0.00063     0.00328
  n-local   -43.25927   -43.25938   -42.65816    -0.00004    -0.00012    -0.00007
  augment    -4.12478    -4.12469    -3.67937    -0.00002     0.00001     0.00002
  Kinetic   781.88362   781.88557   909.16303     0.00104     0.00150     0.00084
  Fock        0.00000     0.00000     0.00000     0.00000     0.00000     0.00000
  vdW        -0.36906    -0.36906    -1.11744    -0.00001    -0.00001    -0.00000
  Total      -0.33984    -0.33918    -0.40497     0.00022     0.00145     0.00054
  in kB      -1.78482    -1.78138    -2.12689     0.00118     0.00763     0.00283

 VOLUME and BASIS-vectors are now :
  energy-cutoff  :      450.00
  volume of cell :      305.06
      direct lattice vectors                 reciprocal lattice vectors
     4.196759107  2.423000000  0.000000000     0.119139552  0.206355757  0.000000000
    -4.196759107  2.423000000  0.000000000    -0.119139552  0.206355757  0.000000000
     0.000000000  0.000000000 15.000000000     0.000000000  0.000000000  0.066666667

  length of vectors
     4.846000000  4.846000000 15.000000000     0.238279104  0.238279104  0.066666667

 FORCES acting on ions
    electron-ion (+dipol)            ewald-force                    non-local-force                 convergence-correction
   -.172E-02 0.205E-02 0.224E+03   0.168E-02 -.196E-02 -.224E+03   0.531E-04 -.202E-03 -.840E-01   0.183E-07 0.151E-07 -.390E-04
   -.199E+02 -.111E+02 0.227E+03   0.226E+02 0.127E+02 -.227E+03   -.274E+01 -.162E+01 0.128E-02   -.440E-05 -.166E-05 -.370E-04
   0.195E+02 -.117E+02 0.227E+03   -.223E+02 0.132E+02 -.227E+03   0.277E+01 -.156E+01 0.148E-02   0.365E-05 -.296E-05 -.370E-04
   0.354E+00 0.228E+02 0.227E+03   -.324E+00 -.259E+02 -.227E+03   -.297E-01 0.318E+01 0.109E-02   0.757E-06 0.461E-05 -.370E-04
   0.356E+00 -.368E+02 0.303E+03   -.344E+00 0.431E+02 -.303E+03   -.125E-01 -.629E+01 0.708E-01   0.141E-05 -.340E-05 -.537E-04
   0.317E+02 0.187E+02 0.303E+03   -.371E+02 -.218E+02 -.303E+03   0.545E+01 0.313E+01 0.709E-01   0.223E-05 0.294E-05 -.537E-04
   -.320E+02 0.181E+02 0.303E+03   0.375E+02 -.212E+02 -.303E+03   -.544E+01 0.316E+01 0.714E-01   -.369E-05 0.483E-06 -.537E-04
   0.549E-01 0.564E-01 -.227E+03   -.619E-01 -.492E-01 0.227E+03   0.736E-02 -.705E-02 0.467E-01   -.193E-05 -.383E-05 -.621E-04
   0.385E+00 -.686E+00 -.228E+03   -.387E+00 0.708E+00 0.228E+03   0.235E-02 -.224E-01 0.272E-01   0.409E-05 -.758E-05 -.619E-04
   0.875E-02 0.157E-01 -.228E+03   -.885E-02 -.164E-01 0.228E+03   -.409E-04 0.565E-03 0.730E-02   0.593E-07 0.133E-06 -.616E-04
   -.787E+00 0.238E-01 -.228E+03   0.808E+00 -.328E-01 0.228E+03   -.204E-01 0.953E-02 0.274E-01   -.849E-05 0.385E-06 -.619E-04
   -.639E-01 0.217E-02 -.227E+03   0.610E-01 -.114E-01 0.227E+03   0.223E-02 0.931E-02 0.465E-01   0.435E-05 0.877E-07 -.621E-04
   -.665E-02 -.956E-02 -.225E+03   0.659E-02 0.975E-02 0.225E+03   0.284E-03 0.451E-04 0.538E-01   0.140E-06 -.170E-06 -.621E-04
   0.222E-02 -.715E-01 -.227E+03   0.737E-02 0.736E-01 0.227E+03   -.966E-02 -.282E-02 0.465E-01   -.248E-05 0.361E-05 -.621E-04
   0.408E+00 0.669E+00 -.227E+03   -.425E+00 -.682E+00 0.227E+03   0.180E-01 0.131E-01 0.283E-01   0.429E-05 0.735E-05 -.619E-04
   -.182E-03 0.603E-04 -.415E+00   0.494E-14 -.422E-14 -.171E-12   0.185E-03 0.316E-04 0.417E+00   0.187E-08 0.109E-07 -.807E-03

 POSITION                                       TOTAL-FORCE (eV/Angst)
      0.00570      0.01636      1.52252         0.000011     -0.000114      0.000354
      1.49517      0.87767      1.51067        -0.000390     -0.000346     -0.000379
     -1.48495      0.87559      1.51068         0.000315     -0.000264     -0.000380
      0.00689      3.14179      1.51063        -0.000006      0.000352     -0.000378
      0.00689      1.58447      1.51096         0.000026     -0.000870     -0.000078
      2.84384      1.65631      1.51096         0.000822      0.000422     -0.000105
     -2.83360      1.65425      1.51092        -0.000936      0.000432     -0.000115
     -2.09809      1.21197      5.02673         0.000240      0.000135      0.000043
     -0.69947      1.21207      5.02725         0.000207     -0.000229      0.000173
      0.00019      0.00045      5.02614        -0.000146     -0.000163      0.000187
     -2.79746      2.42355      5.02731        -0.000236      0.000422      0.000167
      0.00011      2.42355      5.02677        -0.000587      0.000024      0.000039
      1.39910      2.42345      5.02520         0.000231      0.000226      0.000242
      2.09852      1.21184      5.02671        -0.000077     -0.000589      0.000052
     -0.69929      3.63472      5.02725         0.000526      0.000563      0.000178
    total drift:                                0.000003      0.000092      0.000521

  FREE ENERGIE OF THE ION-ELECTRON SYSTEM (eV)
  free  energy   TOTEN  =      -127.14091164 eV

  energy  without entropy=     -127.14091123  energy(sigma->0) =     -127.14091144

 stress matrix after NEB project (eV)
     -0.33984      0.00022      0.00054
      0.00022     -0.33918      0.00145
      0.00054      0.00145     -0.40497
  FORCES: max atom, RMS     0.001037    0.000626
  FORCE total and by dimension    0.002424    0.000936
  Stress total and by dimension    0.628126    0.404971
 writing wavefunctions