 vasp.5.4.4.18Apr17-6-g9f103f2a35 (build Mar 30 2023 15:39:25) complex

 executed on             LinuxIFC date 2024.03.22  07:29:59

 INCAR:
 POTCAR:    PAW_PBE B 06Sep2000
 POTCAR:    PAW_PBE C 08Apr2002

   TITEL  = PAW_PBE B 06Sep2000
   POMASS =   10.811; ZVAL   =    3.000    mass and valenz
   ENMAX  =  318.614; ENMIN  =  238.960 eV

   TITEL  = PAW_PBE C 08Apr2002
   POMASS =   12.011; ZVAL   =    4.000    mass and valenz
   ENMAX  =  400.000; ENMIN  =  300.000 eV

  PAW_PBE B 06Sep2000                   :
  PAW_PBE C 08Apr2002                   :

 POSCAR: Graphene-B4C3 Top with lattice parameter
  positions in direct lattice
  velocities in cartesian coordinates
 exchange correlation table for  LEXCH =        8
   RHO(1)=    0.500       N(1)  =     2000
   RHO(2)=  100.500       N(2)  =     4000

 ion  position               nearest neighbor table
   1  0.004  0.003  0.102-   5 1.57   6 1.57   7 1.57   3 1.72   2 1.72   4 1.72
   2  0.359  0.003  0.101-   6 1.56   5 1.65   7 1.65   1 1.72
   3  0.004  0.358  0.101-   7 1.56   6 1.65   5 1.65   1 1.72
   4  0.649  0.648  0.101-   5 1.56   7 1.65   6 1.65   1 1.72
   5  0.328  0.326  0.101-   4 1.56   1 1.57   2 1.65   3 1.65
   6  0.681  0.003  0.101-   2 1.56   1 1.57   3 1.65   4 1.65
   7  0.004  0.679  0.101-   3 1.56   1 1.57   4 1.65   2 1.65
   8  0.000  0.500  0.335-   9 1.40  11 1.40  13 1.40
   9  0.167  0.333  0.335-   8 1.40  12 1.40  10 1.40
  10  0.000  0.000  0.335-  11 1.40   9 1.40  15 1.40
  11  0.167  0.833  0.335-  14 1.40   8 1.40  10 1.40
  12  0.500  0.500  0.335-  15 1.40   9 1.40  13 1.40
  13  0.667  0.333  0.335-  12 1.40   8 1.40  14 1.40
  14  0.500  0.000  0.335-  11 1.40  15 1.40  13 1.40
  15  0.667  0.833  0.335-  12 1.40  14 1.40  10 1.40

  LATTYP: Found a hexagonal cell.
 ALAT       =     4.8460000000
 C/A-ratio  =     3.0953363599

  Lattice vectors:

 A1 = (   4.1967591067,   2.4230000000,   0.0000000000)
 A2 = (  -4.1967591067,   2.4230000000,   0.0000000000)
 A3 = (   0.0000000000,   0.0000000000,  15.0000000000)

Analysis of symmetry for initial positions (statically):
 Subroutine PRICEL returns:
 Original cell was already a primitive cell.

 Routine SETGRP: Setting up the symmetry group for a
 hexagonal supercell.

 Subroutine GETGRP returns: Found  1 space group operations
 (whereof  1 operations were pure point group operations)
 out of a pool of 24 trial point group operations.

The static configuration has the point symmetry C_1 .

Analysis of symmetry for dynamics (positions and initial velocities):
 Subroutine PRICEL returns:
 Original cell was already a primitive cell.

 Routine SETGRP: Setting up the symmetry group for a
 hexagonal supercell.

 Subroutine GETGRP returns: Found  1 space group operations
 (whereof  1 operations were pure point group operations)
 out of a pool of 24 trial point group operations.

The dynamic configuration has the point symmetry C_1 .

 Subroutine INISYM returns: Found  1 space group operations
 (whereof  1 operations are pure point group operations),
 and found     1 'primitive' translations

 irot  :   1
 isymop:   1   0   0
           0   1   0
           0   0   1

 gtrans:     0.0000000     0.0000000     0.0000000

 ptrans:     0.0000000     0.0000000     0.0000000

 rotmap:
 (   1->   1)  (   2->   2)  (   3->   3)  (   4->   4)  (   5->   5)
 (   6->   6)  (   7->   7)  (   8->   8)  (   9->   9)  (  10->  10)
 (  11->  11)  (  12->  12)  (  13->  13)  (  14->  14)  (  15->  15)

 KPOINTS: k-points

Automatic generation of k-mesh.
Space group operators:
 irot       det(A)        alpha          n_x          n_y          n_z        tau_x        tau_y        tau_z
    1     1.000000     0.000000     1.000000     0.000000     0.000000     0.000000     0.000000     0.000000

 Subroutine IBZKPT returns following result:

 Found    145 irreducible k-points:

 Following reciprocal coordinates:
            Coordinates               Weight
  0.000000  0.000000  0.000000      1.000000
  0.058824  0.000000  0.000000      2.000000
  0.117647  0.000000  0.000000      2.000000
  0.176471  0.000000  0.000000      2.000000
  0.235294 -0.000000  0.000000      2.000000
  0.294118 -0.000000  0.000000      2.000000
  0.352941 -0.000000  0.000000      2.000000
  0.411765 -0.000000  0.000000      2.000000
  0.470588 -0.000000  0.000000      2.000000
  0.000000  0.058824  0.000000      2.000000
  0.058824  0.058824  0.000000      2.000000
  0.117647  0.058824  0.000000      2.000000
  0.176471  0.058824  0.000000      2.000000
  0.235294  0.058824  0.000000      2.000000
  0.294118  0.058824  0.000000      2.000000
  0.352941  0.058824  0.000000      2.000000
  0.411765  0.058824  0.000000      2.000000
  0.470588  0.058824  0.000000      2.000000
 -0.470588  0.058824  0.000000      2.000000
 -0.411765  0.058824  0.000000      2.000000
 -0.352941  0.058824  0.000000      2.000000
 -0.294118  0.058824  0.000000      2.000000
 -0.235294  0.058824  0.000000      2.000000
 -0.176471  0.058824  0.000000      2.000000
 -0.117647  0.058824  0.000000      2.000000
 -0.058824  0.058824  0.000000      2.000000
  0.000000  0.117647  0.000000      2.000000
  0.058824  0.117647  0.000000      2.000000
  0.117647  0.117647  0.000000      2.000000
  0.176471  0.117647  0.000000      2.000000
  0.235294  0.117647  0.000000      2.000000
  0.294118  0.117647  0.000000      2.000000
  0.352941  0.117647  0.000000      2.000000
  0.411765  0.117647  0.000000      2.000000
  0.470588  0.117647  0.000000      2.000000
 -0.470588  0.117647  0.000000      2.000000
 -0.411765  0.117647  0.000000      2.000000
 -0.352941  0.117647  0.000000      2.000000
 -0.294118  0.117647  0.000000      2.000000
 -0.235294  0.117647  0.000000      2.000000
 -0.176471  0.117647  0.000000      2.000000
 -0.117647  0.117647  0.000000      2.000000
 -0.058824  0.117647  0.000000      2.000000
  0.000000  0.176471  0.000000      2.000000
  0.058824  0.176471  0.000000      2.000000
  0.117647  0.176471  0.000000      2.000000
  0.176471  0.176471  0.000000      2.000000
  0.235294  0.176471  0.000000      2.000000
  0.294118  0.176471  0.000000      2.000000
  0.352941  0.176471  0.000000      2.000000
  0.411765  0.176471  0.000000      2.000000
  0.470588  0.176471  0.000000      2.000000
 -0.470588  0.176471  0.000000      2.000000
 -0.411765  0.176471  0.000000      2.000000
 -0.352941  0.176471  0.000000      2.000000
 -0.294118  0.176471  0.000000      2.000000
 -0.235294  0.176471  0.000000      2.000000
 -0.176471  0.176471  0.000000      2.000000
 -0.117647  0.176471  0.000000      2.000000
 -0.058824  0.176471  0.000000      2.000000
[...]
  0.117647  0.470588  0.000000      2.000000
  0.176471  0.470588  0.000000      2.000000
  0.235294  0.470588  0.000000      2.000000
  0.294118  0.470588  0.000000      2.000000
  0.352941  0.470588  0.000000      2.000000
  0.411765  0.470588  0.000000      2.000000
  0.470588  0.470588  0.000000      2.000000
 -0.470588  0.470588  0.000000      2.000000
 -0.411765  0.470588  0.000000      2.000000
 -0.352941  0.470588  0.000000      2.000000
 -0.294118  0.470588  0.000000      2.000000
 -0.235294  0.470588  0.000000      2.000000
 -0.176471  0.470588  0.000000      2.000000
 -0.117647  0.470588  0.000000      2.000000
 -0.058824  0.470588  0.000000      2.000000

 Following cartesian coordinates:
            Coordinates               Weight
  0.000000  0.000000  0.000000      1.000000
  0.007008  0.012139  0.000000      2.000000
  0.014016  0.024277  0.000000      2.000000
  0.021025  0.036416  0.000000      2.000000
  0.028033  0.048554  0.000000      2.000000
  0.035041  0.060693  0.000000      2.000000
  0.042049  0.072831  0.000000      2.000000
  0.049057  0.084970  0.000000      2.000000
  0.056066  0.097109  0.000000      2.000000
 -0.007008  0.012139  0.000000      2.000000
  0.000000  0.024277  0.000000      2.000000
  0.007008  0.036416  0.000000      2.000000
  0.014016  0.048554  0.000000      2.000000
  0.021025  0.060693  0.000000      2.000000
  0.028033  0.072831  0.000000      2.000000
  0.035041  0.084970  0.000000      2.000000
  0.042049  0.097109  0.000000      2.000000
  0.049057  0.109247  0.000000      2.000000
 -0.063074 -0.084970  0.000000      2.000000
 -0.056066 -0.072831  0.000000      2.000000
 -0.049057 -0.060693  0.000000      2.000000
 -0.042049 -0.048554  0.000000      2.000000
 -0.035041 -0.036416  0.000000      2.000000
 -0.028033 -0.024277  0.000000      2.000000
 -0.021025 -0.012139  0.000000      2.000000
 -0.014016  0.000000  0.000000      2.000000
 -0.014016  0.024277  0.000000      2.000000
 -0.007008  0.036416  0.000000      2.000000
  0.000000  0.048554  0.000000      2.000000
  0.007008  0.060693  0.000000      2.000000
  0.014016  0.072831  0.000000      2.000000
  0.021025  0.084970  0.000000      2.000000
  0.028033  0.097109  0.000000      2.000000
  0.035041  0.109247  0.000000      2.000000
  0.042049  0.121386  0.000000      2.000000
 -0.070082 -0.072831  0.000000      2.000000
 -0.063074 -0.060693  0.000000      2.000000
 -0.056066 -0.048554  0.000000      2.000000
 -0.049057 -0.036416  0.000000      2.000000
 -0.042049 -0.024277  0.000000      2.000000
 -0.035041 -0.012139  0.000000      2.000000
 -0.028033  0.000000  0.000000      2.000000
 -0.021025  0.012139  0.000000      2.000000
 -0.021025  0.036416  0.000000      2.000000
 -0.014016  0.048554  0.000000      2.000000
 -0.007008  0.060693  0.000000      2.000000
  0.000000  0.072831  0.000000      2.000000
  0.007008  0.084970  0.000000      2.000000
  0.014016  0.097109  0.000000      2.000000
  0.021025  0.109247  0.000000      2.000000
  0.028033  0.121386  0.000000      2.000000
  0.035041  0.133524  0.000000      2.000000
 -0.077090 -0.060693  0.000000      2.000000
 -0.070082 -0.048554  0.000000      2.000000
 -0.063074 -0.036416  0.000000      2.000000
 -0.056066 -0.024277  0.000000      2.000000
 -0.049057 -0.012139  0.000000      2.000000
 -0.042049  0.000000  0.000000      2.000000
 -0.035041  0.012139  0.000000      2.000000
 -0.028033  0.024277  0.000000      2.000000
[...]
 -0.042049  0.121386  0.000000      2.000000
 -0.035041  0.133524  0.000000      2.000000
 -0.028033  0.145663  0.000000      2.000000
 -0.021025  0.157801  0.000000      2.000000
 -0.014016  0.169940  0.000000      2.000000
 -0.007008  0.182079  0.000000      2.000000
  0.000000  0.194217  0.000000      2.000000
 -0.112131  0.000000  0.000000      2.000000
 -0.105123  0.012139  0.000000      2.000000
 -0.098115  0.024277  0.000000      2.000000
 -0.091107  0.036416  0.000000      2.000000
 -0.084099  0.048554  0.000000      2.000000
 -0.077090  0.060693  0.000000      2.000000
 -0.070082  0.072831  0.000000      2.000000
 -0.063074  0.084970  0.000000      2.000000

 SYSTEM =  DF
 POSCAR =  Graphene-B4C3 Top with lattice parameter

 Startparameter for this run:
   NWRITE =      3    write-flag & timer
   PREC   = accura    normal or accurate (medium, high low for compatibility)
   ISTART =      1    job   : 0-new  1-cont  2-samecut
   ICHARG =      2    charge: 1-file 2-atom 10-const
   ISPIN  =      1    spin polarized calculation?
[...]
    2.504883    5.842626    5.832235    1.295036   -0.073700    0.010804    0.046841
    2.578556    4.376507    4.361200    1.294450   -0.060615    0.012604    0.055740
    2.652229    1.862491    1.848874    1.288350   -0.017521    0.015399    0.052919
    2.725902    0.191085    0.189579    1.298290   -0.010949    0.018234    0.058049
    2.799575    0.011145    0.015929    1.316994    0.002852    0.025333    0.075255
    2.873248   -1.701831   -1.691923    1.325399    0.030318    0.032909    0.081230
    2.946921   -3.044758   -3.058552    1.330422    0.008540    0.023856    0.059399
    3.020594   -2.401795   -2.418910    1.347918   -0.000594    0.008075    0.039236
    3.094267   -1.275165   -1.278256    1.386443    0.041522    0.006381    0.033886
    3.167940   -0.321289   -0.331376    1.433369    0.065910    0.012988    0.044820
    3.241613    0.487319    0.463461    1.461915    0.067492    0.025732    0.071062
    3.315286    0.791167    0.771665    1.414928    0.075949    0.031325    0.078334
    3.388959    1.133219    1.123540    1.324517    0.011209    0.020018    0.036508
    3.462632    0.463143    0.463950    1.276850   -0.125182    0.001239   -0.012952
    3.536305   -0.770795   -0.765491    1.235701   -0.252477   -0.024167   -0.058579
    3.609979   -1.898137   -1.892159    1.110451   -0.213676   -0.029903   -0.078339
    3.683652   -2.097949   -2.093337    1.019900   -0.069806   -0.018678   -0.059853
    3.757325   -1.840469   -1.850818    1.017841    0.024460   -0.007799   -0.036092
    3.830998   -1.552430   -1.564050    1.029929    0.085435    0.007986   -0.020698
    3.904671   -1.415006   -1.420686    0.983864    0.086646    0.015439   -0.014294
    3.978344   -1.118814   -1.124476    0.922746    0.040539    0.011459   -0.013676
    4.052017   -0.923027   -0.931189    0.932958    0.016561    0.002065   -0.016056
    4.125690   -1.103269   -1.118660    0.963677    0.012726   -0.008293   -0.014215
    4.199363   -1.164887   -1.191610    0.993337    0.027849   -0.013150   -0.008232
    4.273036   -1.319557   -1.358702    1.016709    0.034865   -0.013144   -0.009930
    4.346709   -1.418078   -1.440428    1.038764    0.029159   -0.012376   -0.011334
[...]
   28.364117    0.942204    0.942279    0.970506   -0.000026    0.000019    0.000005
   28.437790    0.942516    0.942591    0.970697   -0.000026    0.000019    0.000005
   28.511463    0.942825    0.942900    0.970887   -0.000026    0.000019    0.000005
   28.585136    0.943132    0.943206    0.971075   -0.000026    0.000019    0.000005
   28.658809    0.943436    0.943510    0.971260   -0.000026    0.000019    0.000005
   28.732482    0.943738    0.943811    0.971444   -0.000026    0.000019    0.000005
   28.806155    0.944037    0.944110    0.971626   -0.000025    0.000019    0.000005
   28.879828    0.944334    0.944407    0.971806   -0.000025    0.000019    0.000005
   28.953501    0.944628    0.944701    0.971984   -0.000025    0.000018    0.000005
   29.027174    0.944920    0.944992    0.972160   -0.000025    0.000018    0.000005
   29.100847    0.945210    0.945282    0.972335   -0.000025    0.000018    0.000005
   29.174520    0.945497    0.945569    0.972507   -0.000025    0.000018    0.000005
   29.248193    0.945782    0.945854    0.972678   -0.000025    0.000018    0.000005
   29.321866    0.946065    0.946136    0.972848   -0.000025    0.000018    0.000005
   29.395539    0.946346    0.946416    0.973015   -0.000024    0.000018    0.000005

  frequency dependent IMAGINARY DIELECTRIC FUNCTION (independent particle, no local field effects) current-current (2nd set in vasprun.xml)
     E(ev)      X         Y         Z        XY        YZ        ZX
    0.000000  222.509537  222.513714    5.627113   -7.831996   -1.214840   -2.505967
    0.073673   22.539611   22.540462    0.562948   -0.799069   -0.121685   -0.250874
    0.147346   11.741507   11.742666    0.281835   -0.424538   -0.061148   -0.125860
    0.221019    8.441808    8.443610    0.188293   -0.313000   -0.041110   -0.084381
    0.294692    7.164287    7.167189    0.141647   -0.269597   -0.031203   -0.063792
    0.368365    6.978789    6.983760    0.113764   -0.254545   -0.025355   -0.051566
    0.442038    7.937320    7.946528    0.095267   -0.244133   -0.021547   -0.043523
    0.515711   10.543326   10.558747    0.082141   -0.167978   -0.018898   -0.037828
    0.589384   11.777785   11.781169    0.072368    0.112369   -0.016863   -0.033445
    0.663057    7.019843    7.013243    0.064819    0.268019   -0.015355   -0.030157
    0.736730    4.091970    4.087931    0.058850    0.214423   -0.014305   -0.027756
    0.810403    3.214767    3.211270    0.054040    0.151106   -0.013523   -0.025884
    0.884076    3.276616    3.271906    0.050103    0.105059   -0.012952   -0.024398
    0.957749    4.189980    4.181978    0.046848    0.073946   -0.012563   -0.023214
    1.031422    5.741693    5.734492    0.044136    0.085441   -0.012284   -0.022208
    1.105095    4.726926    4.731152    0.041844    0.138274   -0.012039   -0.021325
    1.178768    2.886136    2.888418    0.039914    0.130176   -0.012017   -0.020744
    1.252442    2.181606    2.182000    0.038315    0.111450   -0.012150   -0.020353
    1.326115    2.053378    2.053136    0.037008    0.097799   -0.012430   -0.020100
    1.399788    2.288077    2.287661    0.035975    0.088415   -0.012886   -0.019973
    1.473461    3.004691    3.004341    0.035225    0.085021   -0.013561   -0.019949
    1.547134    4.142355    4.141659    0.034780    0.102450   -0.014454   -0.019899
    1.620807    3.890994    3.888760    0.034638    0.134473   -0.015624   -0.019817
    1.694480    3.488696    3.485023    0.035036    0.142177   -0.017541   -0.020068
    1.768153    4.359598    4.352989    0.036482    0.145131   -0.020437   -0.020735
    1.841826    5.887490    5.883972    0.039382    0.157333   -0.022914   -0.022940
    1.915499    5.596933    5.601065    0.042281    0.097817   -0.020280   -0.033420
    1.989172    5.238484    5.236487    0.044660    0.026443   -0.014672   -0.035608
    2.062845    5.494365    5.495334    0.045538    0.073917   -0.010806   -0.025225
    2.136518    5.418913    5.423916    0.043829    0.078465   -0.000488   -0.041309
    2.210191    6.001362    6.010711    0.044574    0.007587   -0.002234   -0.049693
    2.283864    7.448678    7.448664    0.050076   -0.086555   -0.001387   -0.050518
    2.357537    7.700202    7.700110    0.057336   -0.042512    0.001000   -0.040524
    2.431210    7.792790    7.795699    0.063020   -0.057616   -0.009121   -0.034046
    2.504883    9.250118    9.250001    0.071983   -0.073449   -0.011409   -0.034985
    2.578556   10.680086   10.679833    0.084803   -0.083854   -0.009161   -0.020401
    2.652229   10.981800   10.965975    0.083965   -0.084912   -0.008863   -0.016000
    2.725902    9.311074    9.300248    0.077504   -0.060478   -0.008406   -0.015158
    2.799575    8.871741    8.863082    0.086126   -0.065919   -0.006667   -0.007254
    2.873248    8.712564    8.722552    0.101528   -0.039878    0.005013    0.025187
    2.946921    6.367305    6.380719    0.108372   -0.013442    0.020669    0.042182
    3.020594    4.423324    4.417465    0.109021   -0.043026    0.015739    0.039075
    3.094267    3.656250    3.651693    0.123830   -0.046096    0.005851    0.026159
    3.167940    3.471217    3.477716    0.170886   -0.003498    0.000001    0.018430
    3.241613    3.839258    3.838000    0.263341    0.026388    0.003217    0.029428
    3.315286    4.279550    4.262261    0.371280    0.084463    0.022870    0.080518
    3.388959    5.030536    5.008747    0.400588    0.157776    0.036308    0.112868
    3.462632    6.001427    5.984628    0.409359    0.168840    0.044783    0.114850
    3.536305    6.158292    6.145894    0.447114    0.030337    0.033593    0.088458
    3.609979    5.325793    5.322066    0.469048   -0.148341    0.006900    0.036973
    3.683652    4.271964    4.276611    0.378110   -0.202497   -0.006393    0.002676
    3.757325    3.606640    3.611648    0.305697   -0.163040   -0.011787   -0.009559
    3.830998    3.355242    3.350052    0.296185   -0.103495   -0.010435   -0.005002
    3.904671    3.119825    3.112326    0.302134   -0.023591    0.004884   -0.000549
    3.978344    3.009285    3.006652    0.234671    0.004983    0.014703    0.004201
    4.052017    3.141594    3.142807    0.156400   -0.004231    0.021378    0.002460
    4.125690    3.287827    3.287434    0.117303   -0.022887    0.018623   -0.001673
    4.199363    3.185911    3.185673    0.097022   -0.021169    0.011682   -0.000689
    4.273036    3.186678    3.161655    0.088505   -0.008397    0.005988    0.003136
    4.346709    3.174328    3.124328    0.087144    0.007742    0.001468    0.000428
[...]
   28.364117    0.000018    0.000018    0.000053    0.000003    0.000005    0.000006
   28.437790    0.000017    0.000017    0.000053    0.000003    0.000005    0.000006
   28.511463    0.000017    0.000017    0.000052    0.000003    0.000005    0.000006
   28.585136    0.000017    0.000017    0.000051    0.000003    0.000005    0.000006
   28.658809    0.000017    0.000017    0.000050    0.000003    0.000005    0.000005
   28.732482    0.000016    0.000016    0.000049    0.000003    0.000005    0.000005
   28.806155    0.000016    0.000016    0.000049    0.000003    0.000005    0.000005
   28.879828    0.000016    0.000016    0.000048    0.000003    0.000005    0.000005
   28.953501    0.000016    0.000016    0.000047    0.000003    0.000005    0.000005
   29.027174    0.000015    0.000015    0.000046    0.000003    0.000005    0.000005
   29.100847    0.000015    0.000015    0.000046    0.000003    0.000005    0.000005
   29.174520    0.000015    0.000015    0.000045    0.000003    0.000005    0.000005
   29.248193    0.000015    0.000015    0.000044    0.000003    0.000005    0.000005
   29.321866    0.000014    0.000014    0.000044    0.000003    0.000005    0.000005
   29.395539    0.000014    0.000014    0.000043    0.000003    0.000005    0.000005

  frequency dependent      REAL DIELECTRIC FUNCTION (independent particle, no local field effects) current-current (2nd set in vasprun.xml)
     E(ev)        X           Y           Z          XY          YZ          ZX
    0.000000    8.786943    8.786471    1.206957    0.087184   -0.001422    0.000549
    0.073673    8.826302    8.825878    1.207001    0.089215   -0.001422    0.000551
    0.147346    8.949204    8.948930    1.207132    0.095850   -0.001422    0.000558
    0.221019    9.166071    9.166061    1.207351    0.108784   -0.001423    0.000572
    0.294692    9.492080    9.492448    1.207661    0.132000   -0.001422    0.000594
    0.368365    9.923822    9.924535    1.208062    0.174569   -0.001417    0.000632
    0.442038   10.288403   10.288341    1.208556    0.257176   -0.001399    0.000703
    0.515711    9.362711    9.354781    1.209142    0.406758   -0.001337    0.000841
    0.589384    4.088729    4.066586    1.209815    0.467344   -0.001269    0.000936
    0.663057    1.186561    1.175466    1.210600    0.237932   -0.001369    0.000769
    0.736730    2.555919    2.548721    1.211509    0.091357   -0.001429    0.000677
    0.810403    4.090883    4.083875    1.212535    0.042261   -0.001450    0.000669
    0.884076    5.290259    5.283217    1.213684    0.031934   -0.001456    0.000699
    0.957749    6.046449    6.041317    1.214964    0.047358   -0.001435    0.000771
    1.031422    5.144779    5.148921    1.216374    0.086778   -0.001346    0.000894
    1.105095    2.983492    2.984858    1.217931    0.062687   -0.001337    0.000895
    1.178768    3.273343    3.268985    1.219683    0.019141   -0.001373    0.000845
    1.252442    4.242563    4.237739    1.221633    0.003664   -0.001362    0.000849
    1.326115    5.142195    5.137519    1.223800   -0.000577   -0.001317    0.000878
    1.399788    5.969300    5.964684    1.226217    0.001160   -0.001230    0.000923
    1.473461    6.648109    6.643273    1.228919    0.010487   -0.001057    0.000996
    1.547134    6.428767    6.422966    1.231930    0.024334   -0.000711    0.001077
    1.620807    5.613492    5.607533    1.235335    0.006488   -0.000299    0.000800
    1.694480    6.277593    6.271918    1.239302   -0.024000    0.000470    0.000122
    1.768153    7.139892    7.136446    1.243708   -0.048545    0.002546   -0.001196
    1.841826    6.502877    6.506936    1.247521   -0.088806    0.008088   -0.004134
    1.915499    5.346054    5.345262    1.250010   -0.165704    0.015601   -0.005762
    1.989172    5.455741    5.451699    1.251850   -0.103908    0.017132    0.011140
    2.062845    5.587405    5.587529    1.253233   -0.083758    0.022069    0.002569
    2.136518    5.601511    5.601837    1.257115   -0.148495    0.017606    0.000220
    2.210191    6.383412    6.377122    1.265647   -0.194575    0.011736    0.013084
    2.283864    6.032921    6.020274    1.274025   -0.132501    0.012580    0.028172
    2.357537    5.035036    5.028689    1.279370   -0.079927    0.005528    0.040690
    2.431210    5.135467    5.127198    1.284204   -0.093039    0.002853    0.039797
    2.504883    5.138877    5.128447    1.291028   -0.069186    0.011632    0.049579
    2.578556    3.573485    3.558122    1.289503   -0.055325    0.013241    0.057298
    2.652229    1.047030    1.034562    1.283537   -0.012070    0.016011    0.054092
    2.725902   -0.485342   -0.486057    1.294092   -0.007414    0.018809    0.059155
    2.799575   -0.617066   -0.611638    1.312322    0.006778    0.025800    0.075838
    2.873248   -2.310117   -2.300876    1.319762    0.032437    0.032575    0.079540
    2.946921   -3.481987   -3.496751    1.324446    0.008728    0.022424    0.056514
    3.020594   -2.696653   -2.713430    1.342080    0.001568    0.006958    0.036565
    3.094267   -1.509781   -1.512583    1.379883    0.043990    0.005932    0.032108
    3.167940   -0.535937   -0.546471    1.424097    0.065692    0.012944    0.043614
    3.241613    0.256836    0.232983    1.447173    0.065452    0.025531    0.069287
    3.315286    0.539866    0.521360    1.393793    0.070468    0.029947    0.073508
    3.388959    0.843635    0.835224    1.301858    0.001320    0.017844    0.029755
    3.462632    0.121292    0.123074    1.254036   -0.135861   -0.001431   -0.019800
    3.536305   -1.117601   -1.111579    1.211097   -0.255337   -0.026205   -0.063891
    3.609979   -2.194054   -2.187857    1.084799   -0.206389   -0.030419   -0.080710
    3.683652   -2.330815   -2.326449    0.999537   -0.059377   -0.018433   -0.060259
    3.757325   -2.032652   -2.043293    1.001749    0.032772   -0.007245   -0.035781
    3.830998   -1.727259   -1.738630    1.014654    0.090598    0.008495   -0.020601
    3.904671   -1.574177   -1.579480    0.968453    0.087594    0.015161   -0.014413
    3.978344   -1.268908   -1.274449    0.910915    0.039946    0.010684   -0.014032
    4.052017   -1.076650   -1.084890    0.925247    0.016404    0.000955   -0.016320
    4.125690   -1.261704   -1.277104    0.958055    0.013489   -0.009266   -0.014266
    4.199363   -1.315725   -1.342489    0.988829    0.028547   -0.013779   -0.008316
    4.273036   -1.468148   -1.506184    1.012712    0.034967   -0.013494   -0.010196
    4.346709   -1.563758   -1.583831    1.034929    0.028506   -0.012508   -0.011469
[...]
   28.364117    0.942304    0.942380    0.970507   -0.000034    0.000018    0.000003
   28.437790    0.942615    0.942691    0.970699   -0.000034    0.000018    0.000003
   28.511463    0.942924    0.942999    0.970888   -0.000034    0.000018    0.000003
   28.585136    0.943230    0.943305    0.971076   -0.000034    0.000018    0.000003
   28.658809    0.943534    0.943608    0.971261   -0.000033    0.000018    0.000003
   28.732482    0.943835    0.943909    0.971445   -0.000033    0.000018    0.000003
   28.806155    0.944134    0.944208    0.971627   -0.000033    0.000018    0.000003
   28.879828    0.944431    0.944504    0.971807   -0.000033    0.000017    0.000003
   28.953501    0.944725    0.944797    0.971985   -0.000033    0.000017    0.000003
   29.027174    0.945016    0.945088    0.972161   -0.000033    0.000017    0.000003
   29.100847    0.945305    0.945377    0.972336   -0.000032    0.000017    0.000003
   29.174520    0.945592    0.945664    0.972509   -0.000032    0.000017    0.000003
   29.248193    0.945877    0.945948    0.972680   -0.000032    0.000017    0.000003
   29.321866    0.946159    0.946230    0.972849   -0.000032    0.000017    0.000003
   29.395539    0.946439    0.946510    0.973017   -0.000032    0.000017    0.000003

 The outermost node in the dielectric function lies at epsilon=   7.0