 vasp.6.3.2 27Jun22 (build May 31 2023 12:07:17) complex

 executed on             LinuxIFC date 2024.04.12  17:40:15

 INCAR:
   SYSTEM = Dielectric_function
   ISTART = 1
   ICHARG = 2
   PREC = Accurate
   ENCUT = 450
   ALGO = Damped
   EDIFF = 1E-8
   NEDOS = 4000
   ISMEAR = 0
   SIGMA = 0.01
   GGA = PE
   LHFCALC = .TRUE.
   AEXX = 0.25
   HFSCREEN = 0.2
   LOPTICS = .TRUE.
   CSHIFT = 0.1
   NBANDS = 128
   NCORE = 16
   LREAL = .FALSE.

 POTCAR:    PAW_PBE B 06Sep2000
 POTCAR:    PAW_PBE C 08Apr2002
 POTCAR:    PAW_PBE B 06Sep2000
   VRHFIN =B: s2p1

   TITEL  = PAW_PBE B 06Sep2000
   POMASS =   10.811; ZVAL   =    3.000    mass and valenz
   ENMAX  =  318.614; ENMIN  =  238.960 eV

   TITEL  = PAW_PBE C 08Apr2002
   POMASS =   12.011; ZVAL   =    4.000    mass and valenz
   ENMAX  =  400.000; ENMIN  =  300.000 eV

  PAW_PBE B 06Sep2000                   :
  PAW_PBE C 08Apr2002                   :

 POSCAR: Graphene-B4C3 Top with lattice parameter
  positions in direct lattice
  velocities in cartesian coordinates
 exchange correlation table for  LEXCH =        8
   RHO(1)=    0.500       N(1)  =     2000
   RHO(2)=  100.500       N(2)  =     4000

 ion  position               nearest neighbor table
   1  0.004  0.003  0.102-   5 1.57   6 1.57   7 1.57   3 1.72   2 1.72   4 1.72
   2  0.359  0.003  0.101-   6 1.56   5 1.65   7 1.65   1 1.72
   3  0.004  0.358  0.101-   7 1.56   6 1.65   5 1.65   1 1.72
   4  0.649  0.648  0.101-   5 1.56   7 1.65   6 1.65   1 1.72
   5  0.328  0.326  0.101-   4 1.56   1 1.57   2 1.65   3 1.65
   6  0.681  0.003  0.101-   2 1.56   1 1.57   3 1.65   4 1.65
   7  0.004  0.679  0.101-   3 1.56   1 1.57   4 1.65   2 1.65
   8  0.000  0.500  0.335-   9 1.40  11 1.40  13 1.40
   9  0.167  0.333  0.335-   8 1.40  12 1.40  10 1.40
  10  0.000  0.000  0.335-  11 1.40   9 1.40  15 1.40
  11  0.167  0.833  0.335-  14 1.40   8 1.40  10 1.40
  12  0.500  0.500  0.335-  15 1.40   9 1.40  13 1.40
  13  0.667  0.333  0.335-  12 1.40   8 1.40  14 1.40
  14  0.500  0.000  0.335-  11 1.40  15 1.40  13 1.40
  15  0.667  0.833  0.335-  12 1.40  14 1.40  10 1.40

  LATTYP: Found a hexagonal cell.
 ALAT       =     4.8460000000
 C/A-ratio  =     3.0953363599

  Lattice vectors:

 A1 = (   4.1967591067,   2.4230000000,   0.0000000000)
 A2 = (  -4.1967591067,   2.4230000000,   0.0000000000)
 A3 = (   0.0000000000,   0.0000000000,  15.0000000000)

Analysis of symmetry for initial positions (statically):
 Subroutine PRICEL returns:
 Original cell was already a primitive cell.

 Routine SETGRP: Setting up the symmetry group for a
 hexagonal supercell.

 Subroutine GETGRP returns: Found  1 space group operations
 (whereof  1 operations were pure point group operations)
 out of a pool of 24 trial point group operations.

The static configuration has the point symmetry C_1 .

Analysis of symmetry for dynamics (positions and initial velocities):
 Subroutine PRICEL returns:
 Original cell was already a primitive cell.

 Routine SETGRP: Setting up the symmetry group for a
 hexagonal supercell.

 Subroutine GETGRP returns: Found  1 space group operations
 (whereof  1 operations were pure point group operations)
 out of a pool of 24 trial point group operations.

The dynamic configuration has the point symmetry C_1 .

 Subroutine INISYM returns: Found  1 space group operations
 (whereof  1 operations are pure point group operations),
 and found     1 'primitive' translations

                                     Primitive cell

  volume of cell :     305.0624

  direct lattice vectors                    reciprocal lattice vectors
     4.196759107  2.423000000  0.000000000     0.119139552  0.206355757  0.000000000
    -4.196759107  2.423000000  0.000000000    -0.119139552  0.206355757  0.000000000
     0.000000000  0.000000000 15.000000000     0.000000000  0.000000000  0.066666667

  length of vectors
     4.846000000  4.846000000 15.000000000     0.238279104  0.238279104  0.066666667

  position of ions in fractional coordinates (direct lattice)
     0.004056526  0.002697343  0.101501060
     0.359245494  0.002978704  0.100711409
     0.003767832  0.357599513  0.100712169
     0.649148177  0.647506274  0.100708602
     0.327784757  0.326144145  0.100730862
     0.680601878  0.002974890  0.100730542
     0.003770558  0.678959212  0.100727858
     0.000132595  0.500063036  0.335115331
     0.166783864  0.333452843  0.335150012
     0.000115386  0.000071038  0.335075930
     0.166825953  0.833402697  0.335153906
     0.500125878  0.500099855  0.335118110
     0.666781160  0.333405941  0.335013099
     0.500087443  0.000053650  0.335113676
     0.666733165  0.833358192  0.335150101

  ion indices of the primitive-cell ions
   primitive index   ion index
                 1           1
                 2           2
                 3           3
                 4           4
                 5           5
                 6           6
                 7           7
                 8           8
                 9           9
                10          10
                11          11
                12          12
                13          13
                14          14
                15          15

 KPOINTS: k-points

Automatic generation of k-mesh.
 Grid dimensions read from file:
 generate k-points for:   17   17    1

 Generating k-lattice:

  Cartesian coordinates                     Fractional coordinates (reciprocal lattice)
     0.007008209  0.012138574  0.000000000     0.058823529  0.000000000  0.000000000
    -0.007008209  0.012138574  0.000000000     0.000000000  0.058823529  0.000000000
     0.000000000  0.000000000  0.066666667     0.000000000  0.000000000  1.000000000

  Length of vectors
     0.014016418  0.014016418  0.066666667

  Shift w.r.t. Gamma in fractional coordinates (k-lattice)
     0.000000000  0.000000000  0.000000000

 Subroutine IBZKPT returns following result:

 Found    145 irreducible k-points:

 Following reciprocal coordinates:
            Coordinates               Weight
  0.000000  0.000000  0.000000      1.000000
  0.058824 -0.000000  0.000000      2.000000
 -0.000000  0.058824  0.000000      2.000000
 -0.058824  0.058824  0.000000      2.000000
  0.117647  0.000000  0.000000      2.000000
  0.000000  0.117647  0.000000      2.000000
 -0.117647  0.117647  0.000000      2.000000
  0.176471  0.000000  0.000000      2.000000
  0.000000  0.176471  0.000000      2.000000
 -0.176471  0.176471  0.000000      2.000000
  0.235294  0.000000  0.000000      2.000000
  0.000000  0.235294  0.000000      2.000000
 -0.235294  0.235294  0.000000      2.000000
  0.294118 -0.000000  0.000000      2.000000
 -0.000000  0.294118  0.000000      2.000000
 -0.294118  0.294118  0.000000      2.000000
  0.352941 -0.000000  0.000000      2.000000
 -0.000000  0.352941  0.000000      2.000000
 -0.352941  0.352941  0.000000      2.000000
  0.411765 -0.000000  0.000000      2.000000
 -0.000000  0.411765  0.000000      2.000000
 -0.411765  0.411765  0.000000      2.000000
  0.470588  0.000000  0.000000      2.000000
  0.000000  0.470588  0.000000      2.000000
 -0.470588  0.470588  0.000000      2.000000
  0.058824  0.058824  0.000000      2.000000
 -0.058824  0.117647  0.000000      2.000000
 -0.117647  0.058824  0.000000      2.000000
  0.117647  0.058824  0.000000      2.000000
 -0.058824  0.176471  0.000000      2.000000
 -0.176471  0.117647  0.000000      2.000000
 -0.117647  0.176471  0.000000      2.000000
  0.058824  0.117647  0.000000      2.000000
  0.176471 -0.058824  0.000000      2.000000
  0.176471  0.058824  0.000000      2.000000
 -0.058824  0.235294  0.000000      2.000000
 -0.235294  0.176471  0.000000      2.000000
 -0.176471  0.235294  0.000000      2.000000
  0.058824  0.176471  0.000000      2.000000
  0.235294 -0.058824  0.000000      2.000000
  0.235294  0.058824  0.000000      2.000000
 -0.058824  0.294118  0.000000      2.000000
 -0.294118  0.235294  0.000000      2.000000
 -0.235294  0.294118  0.000000      2.000000
  0.058824  0.235294  0.000000      2.000000
  0.294118 -0.058824  0.000000      2.000000
  0.294118  0.058824  0.000000      2.000000
 -0.058824  0.352941  0.000000      2.000000
 -0.352941  0.294118  0.000000      2.000000
 -0.294118  0.352941  0.000000      2.000000
  0.058824  0.294118  0.000000      2.000000
  0.352941 -0.058824  0.000000      2.000000
  0.352941  0.058824  0.000000      2.000000
 -0.058824  0.411765  0.000000      2.000000
 -0.411765  0.352941  0.000000      2.000000
 -0.352941  0.411765  0.000000      2.000000
  0.058824  0.352941  0.000000      2.000000
  0.411765 -0.058824  0.000000      2.000000
  0.411765  0.058824  0.000000      2.000000
 -0.058824  0.470588  0.000000      2.000000
[...]
 -0.294118 -0.470588  0.000000      2.000000
  0.235294  0.294118  0.000000      2.000000
 -0.470588 -0.235294  0.000000      2.000000
  0.352941  0.235294  0.000000      2.000000
 -0.235294 -0.411765  0.000000      2.000000
  0.411765  0.352941  0.000000      2.000000
 -0.352941 -0.411765  0.000000      2.000000
  0.235294  0.352941  0.000000      2.000000
 -0.411765 -0.235294  0.000000      2.000000
  0.294118  0.294118  0.000000      2.000000
 -0.294118 -0.411765  0.000000      2.000000
  0.411765  0.294118  0.000000      2.000000
  0.352941  0.294118  0.000000      2.000000
 -0.294118 -0.352941  0.000000      2.000000
  0.352941  0.352941  0.000000      2.000000

 Following cartesian coordinates:
            Coordinates               Weight
  0.000000  0.000000  0.000000      1.000000
  0.007008  0.012139  0.000000      2.000000
 -0.007008  0.012139  0.000000      2.000000
 -0.014016  0.000000  0.000000      2.000000
  0.014016  0.024277  0.000000      2.000000
 -0.014016  0.024277  0.000000      2.000000
 -0.028033  0.000000  0.000000      2.000000
  0.021025  0.036416  0.000000      2.000000
 -0.021025  0.036416  0.000000      2.000000
 -0.042049  0.000000  0.000000      2.000000
  0.028033  0.048554  0.000000      2.000000
 -0.028033  0.048554  0.000000      2.000000
 -0.056066  0.000000  0.000000      2.000000
  0.035041  0.060693  0.000000      2.000000
 -0.035041  0.060693  0.000000      2.000000
 -0.070082  0.000000  0.000000      2.000000
  0.042049  0.072831  0.000000      2.000000
 -0.042049  0.072831  0.000000      2.000000
 -0.084099  0.000000  0.000000      2.000000
  0.049057  0.084970  0.000000      2.000000
 -0.049057  0.084970  0.000000      2.000000
 -0.098115  0.000000  0.000000      2.000000
  0.056066  0.097109  0.000000      2.000000
 -0.056066  0.097109  0.000000      2.000000
 -0.112131  0.000000  0.000000      2.000000
  0.000000  0.024277  0.000000      2.000000
 -0.021025  0.012139  0.000000      2.000000
 -0.021025 -0.012139  0.000000      2.000000
  0.007008  0.036416  0.000000      2.000000
 -0.028033  0.024277  0.000000      2.000000
 -0.035041 -0.012139  0.000000      2.000000
 -0.035041  0.012139  0.000000      2.000000
 -0.007008  0.036416  0.000000      2.000000
  0.028033  0.024277  0.000000      2.000000
  0.014016  0.048554  0.000000      2.000000
 -0.035041  0.036416  0.000000      2.000000
 -0.049057 -0.012139  0.000000      2.000000
[...]
  670          m_sumb_d                              0.001213                         21   4

 Flat profile

 m_alltoallv_z                      386690.019330    ********
 m_sumb_d                           207469.852581    ********
 dfftw_execute                       44264.213518    ********
 fftbas_plan_mpi                     24331.115120    ********
 m_ireduce_z_to                      14855.247987      890880
 pw_charge_trace_mu_                 11380.964383     8213380
 map_scatter                         11325.666136    ********
 vhamil_trace                         9548.968616    ********
 rpromu_hf                            9048.781725     8716240
 racc0mu_hf_                          7913.375752     8213380
 map_gather                           7272.621262    ********
 apply_gfac_exchange                  4470.413630    ********
 fock_fwd                             2212.059554        6960
 calc_dllmm_trans                     1618.056511    ********
 map_forward                          1107.021276    ********
 depsum_two_bands_rholm_trace_        1082.733232    ********
 map_backward                         1013.024640    ********
 lr_optic                              732.671792           1
 fftbas_mpi                            577.193896    ********
 fft3d_mpi                             571.133191    ********
 racc0_hf                              552.857283    56320320
 rpro1_hf                              543.268824    56320320
 pw_charge_trace                       450.339356    28160160
 fock_set_gfac_vkpt                    411.023367     2807635
 m_ibcast_z_from                       402.659650      911180
 w1_copy                               375.239019     4754405
 depsum_two_bands_rholm_trace          217.571234    ********
 depsum_two_bands_rholm_trace_m        217.441616     8213380
 apply_gfac_qder                       205.246059    28160160
 pdssyex_zheevx                        199.572670        3480
 apply_gfac                            187.452722    56320320
 total_time                            167.443510           1
 phaser_hf                             158.239397     2807635
 overl_fock                            143.821927    ********
 fock_all_dblbuf                       136.613191          24
 m_alltoall_d                           84.275846     1448695
 bg_ppotrf_trtri                        58.549914        3480
 fftwav_mpi                             53.097308     4810810
 waitred                                45.433039        6960
 waitgth                                42.781854        6960
 edwav                                  34.362536          23
 gemm                                   33.845397     1863975
 fock_charge_mu                         28.382421     8213380
 elmin_all                              22.790950           1
 orthch                                 20.290712          24
 apply_gfac_weight                      16.861959     4693360
 fock_force                             15.553095           1
 dllmm_trans_eccp_nl_fock               14.654869      502860
 racc0mu_hf                             14.309006     8213380
 pw_charge_trace_mu                     12.692827     8213380
 orth1                                   7.843116       53940
 depsum_two_bands_rholm_trace_m          5.928488     8213380
 eccp_nl_fock                            5.697702    14080080
 m_bcast_z                               5.630359       20881
 eccp                                    4.509190      160080
 fock_bck                                4.457523        6960
 proj1                                   4.182125       83085
 orth1_nosubindex                        3.333379       13920
 lincom_slice                            2.847413        6960
 wfinit                                  2.792600           1
 redis_proj                              2.402102      215325
 lincom                                  2.190027        6815
 work_mul_crexp                          2.081595     1863975
 w1_dscal                                1.652989       53360
 eddiag                                  1.553247           1
 potlok                                  1.498671          25
 force_and_stress                        1.497568           1
 phase                                   1.454175        8266
 vnlac0                                  1.388134      124265
 crexp_mul_wave                          1.224638     1246275
 fornl                                   1.186720           1
 vhamil                                  1.183470       55680
 fock_set_fsg                            1.091638           2
 pw_charge                               0.816006       27744
 redis_pw                                0.792717      228955
 eddiag_lr                               0.740674           3
 fft_and_gather                          0.699053        7105
 depsum_sym                              0.681941          24
 m_bcast_d                               0.672814          28
 reduce                                  0.669750        6960
 brgrid                                  0.664759           1
 soft_charge_sym                         0.646919          24
 projxyz                                 0.547204         145
 ggaall_grid                             0.540851          26
 inisym                                  0.490748           1
 densta                                  0.215988          26
 pothar                                  0.199155          25
 spher                                   0.176332          16
 lrf_rphi0                               0.174460           3
 contraction                             0.161040      502860
 fftext_mpi                              0.139805      117450
 hamiltmu_commutator                     0.124800         870
 augmentation_charge                     0.075609          24
 rsp                                     0.072680           1
 choleski                                0.072445        3480
 crpa_reader                             0.071153           1
 kinhamil                                0.069856       55680
 hamilt_local                            0.066401       55680
 orth1_distri                            0.056981       13920
 spher_der                               0.050036           6
 lincom_distri                           0.045228        3480
 setdij_                                 0.042094          33
 forloc                                  0.041803           1
 recon_slice                             0.038704        6960
 overl                                   0.038473       64090
 set_dd_paw                              0.037826          26
 lrf_commutator                          0.029726           3
 rspher_all                              0.024998           4
 overl1                                  0.022808       67860
 set_charge                              0.019101          24
 posmap                                  0.016567           2
 proall                                  0.015788           1
 m_sum_g                                 0.013029       20880
 proj                                    0.011474         145
 distri_slice                            0.008699       13920
 fft_gq                                  0.005424          24
 fewald                                  0.002555           1
 redis_pw_all                            0.002075          23
 forhar                                  0.001748           1
 overl1_c                                0.001189        3045
 stufak                                  0.000834           1
 vectorpot                               0.000735           1
 set_dd_magatom                          0.000684           2
 wrk_allocate                            0.000670           1
 fftbrc_mpi                              0.000273         387
 rcp                                     0.000086           1
 wrk_deallocate                          0.000061           1
 shift_bands_between_low_high            0.000032         145
 redis_pw_over_bands                     0.000030          24
 FERMAT_RAZOR                            0.000021           1
 potlok_metagga                          0.000013          24
 fordep                                  0.000012           1
 rotate_active_occupied_orbital          0.000001           1
  summed up times    752429.545493126

 Accumulative profile

 total_time                         752429.545493           1
 elmin_all                          675703.020831           1
 fock_all_dblbuf                    674924.823898          24
 fock_fwd                           657182.645832        6960
 edwav                              650614.542033          23
 fft3d_mpi                          477152.008641    ********
 fftbas_mpi                         476550.660420    ********
 fftbas_plan_mpi                    476003.681281    ********
 m_alltoallv_z                      386690.019330    ********
 map_forward                        212693.107366    ********
 m_sumb_d                           207469.852581    ********
 map_backward                       194715.245278    ********
 fock_charge_mu                     100440.044040     8213380
 rpromu_hf                           99081.976219     8716240
 racc0mu_hf                          87606.545849     8213380
 racc0mu_hf_                         87592.236843     8213380
 lr_optic                            70727.130879           1
 dfftw_execute                       44264.213518    ********
 eddiag                              25007.138676           1
 rpro1_hf                            15149.288248    56320320
 reduce                              14855.917737        6960
 m_ireduce_z_to                      14855.247987      890880
 racc0_hf                            14657.053819    56320320
 pw_charge_trace_mu                  11393.657209     8213380
 pw_charge_trace_mu_                 11380.964383     8213380
 map_scatter                         11325.666136    ********
 vhamil_trace                         9548.968616    ********
 fftwav_mpi                           7823.884456     4810810
 map_gather                           7272.621262    ********
 force_and_stress                     5738.983224           1
 fock_force                           5735.485443           1
 apply_gfac_exchange                  4470.413630    ********
 fft_and_gather                       1660.767385        7105
 calc_dllmm_trans                     1618.056511    ********
 depsum_two_bands_rholm_trace_m       1411.458561     8213380
 depsum_two_bands_rholm_trace_m       1405.530074     8213380
 depsum_two_bands_rholm_trace         1300.304465    ********
 fock_bck                             1198.705354        6960
 depsum_two_bands_rholm_trace_        1082.733232    ********
 fftext_mpi                            734.636486      117450
 fock_set_gfac_vkpt                    569.262764     2807635
 vnlac0                                513.891347      124265
 pw_charge_trace                       450.339356    28160160
 m_ibcast_z_from                       402.659650      911180
 w1_copy                               375.239019     4754405
 apply_gfac_qder                       205.246059    28160160
 pdssyex_zheevx                        199.572670        3480
 apply_gfac                            187.452722    56320320
 phaser_hf                             158.239397     2807635
 orthch                                158.124404          24
 overl_fock                            143.821927    ********
 m_alltoall_d                           84.275846     1448695
 m_sum_g                                65.885036       20880
 redis_pw                               62.842653      228955
 choleski                               58.622360        3480
 bg_ppotrf_trtri                        58.549914        3480
 set_charge                             53.765337          24
 dllmm_trans_eccp_nl_fock               50.233530      502860
 soft_charge_sym                        49.874708          24
 orth1_distri                           46.365961       13920
 waitred                                45.433039        6960
 waitgth                                42.781854        6960
 hamilt_local                           35.032471       55680
 gemm                                   33.845397     1863975
 kinhamil                               33.782600       55680
 fftbrc_mpi                             30.215030         387
 lincom_distri                          25.849480        3480
 proj1                                  25.565862       83085
 redis_proj                             24.628012      215325
 apply_gfac_weight                      16.861959     4693360
 fft_gq                                 10.939924          24
 lrf_rphi0                               9.961545           3
 potlok                                  8.346341          25
 orth1                                   7.843116       53940
 eccp                                    6.753803      160080
 wfinit                                  6.299212           1
 eccp_nl_fock                            5.697702    14080080
 m_bcast_z                               5.630359       20881
 eddiag_lr                               4.898623           3
 lrf_commutator                          4.780153           3
 orth1_nosubindex                        3.333379       13920
 lincom_slice                            2.847413        6960
 fock_set_fsg                            2.827486           2
 hamiltmu_commutator                     2.806979         870
 depsum_sym                              2.330430          24
 lincom                                  2.190027        6815
 work_mul_crexp                          2.081595     1863975
 densta                                  1.762721          26
 proall                                  1.743104           1
 proj                                    1.684705         145
 w1_dscal                                1.652989       53360
 fornl                                   1.568681           1
 augmentation_charge                     1.541098          24
 phase                                   1.454175        8266
 crexp_mul_wave                          1.224638     1246275
 vhamil                                  1.183470       55680
 set_dd_paw                              1.097121          26
 projxyz                                 0.996780         145
 pw_charge                               0.816006       27744
 redis_pw_over_bands                     0.782821          24
 redis_pw_all                            0.782792          23
 wrk_allocate                            0.682904           1
 m_bcast_d                               0.672814          28
 brgrid                                  0.664759           1
 ggaall_grid                             0.540851          26
 inisym                                  0.507315           1
 pothar                                  0.217086          25
 spher_der                               0.187440           6
 spher                                   0.176332          16
 contraction                             0.161040      502860
 fewald                                  0.152307           1
 rsp                                     0.072680           1
 setdij_                                 0.072080          33
 crpa_reader                             0.071153           1
 forloc                                  0.042626           1
 recon_slice                             0.038704        6960
 overl                                   0.038473       64090
 rspher_all                              0.024998           4
 overl1                                  0.022808       67860
 posmap                                  0.016567           2
 distri_slice                            0.008699       13920
 fordep                                  0.007096           1
 forhar                                  0.001862           1
 overl1_c                                0.001189        3045
 stufak                                  0.000834           1
 vectorpot                               0.000735           1
 set_dd_magatom                          0.000684           2
 rcp                                     0.000086           1
 wrk_deallocate                          0.000061           1
 shift_bands_between_low_high            0.000032         145
 FERMAT_RAZOR                            0.000021           1
 potlok_metagga                          0.000013          24
 rotate_active_occupied_orbital          0.000001           1

Profiling took ********************  0.033863  0.033743 seconds
Profiling took ********** seconds