 vasp.6.3.2 27Jun22 (build May 31 2023 12:07:17) complex

 executed on             LinuxIFC date 2024.03.29  17:55:06

 INCAR:
   SYSTEM = PDoS_HSE06
   ISTART = 1
   ICHARG = 2
   PREC = Accurate
   LORBIT = 11
   NEDOS = 4000
   ENCUT = 450
   ALGO = Damped
   TIME = 0.4
   NELM = 200
   EDIFF = 1E-6
   EDIFFG = -1E-3
   SIGMA = 0.1
   ISMEAR = 0
   IBRION = -1
   GGA = PE
   LHFCALC = .TRUE.
   AEXX = 0.25
   HFSCREEN = 0.2
   NKRED = 1

 POTCAR:    PAW_PBE B 06Sep2000
 POTCAR:    PAW_PBE C 08Apr2002
|           W    W    AA    RRRRR   N    N  II  N    N   GGGG   !!!           |
|           W    W   A  A   R    R  NN   N  II  NN   N  G    G  !!!           |
|           W    W  A    A  R    R  N N  N  II  N N  N  G       !!!           |
|           W WW W  AAAAAA  RRRRR   N  N N  II  N  N N  G  GGG   !            |
|           WW  WW  A    A  R   R   N   NN  II  N   NN  G    G                |
|           W    W  A    A  R    R  N    N  II  N    N   GGGG   !!!           |
|     For optimal performance we recommend to set                             |
|       NCORE = 2 up to number-of-cores-per-socket                            |
|     This setting can greatly improve the performance of VASP for DFT.       |
|     The default, NCORE=1 might be grossly inefficient on modern             |
|     multi-core architectures or massively parallel machines. Do your        |
|     Unfortunately you need to use the default for GW and RPA                |
|     calculations (for HF NCORE is supported but not extensively tested      |
|     yet).                                                                   |

   TITEL  = PAW_PBE B 06Sep2000
   POMASS =   10.811; ZVAL   =    3.000    mass and valenz
   ENMAX  =  318.614; ENMIN  =  238.960 eV

   TITEL  = PAW_PBE C 08Apr2002
   POMASS =   12.011; ZVAL   =    4.000    mass and valenz
   ENMAX  =  400.000; ENMIN  =  300.000 eV

  PAW_PBE B 06Sep2000                   :
  PAW_PBE C 08Apr2002                   :

 POSCAR: Graphene-B4C3 Top with lattice parameter
  positions in direct lattice
  velocities in cartesian coordinates
 exchange correlation table for  LEXCH =        8
   RHO(1)=    0.500       N(1)  =     2000
   RHO(2)=  100.500       N(2)  =     4000

 ion  position               nearest neighbor table
   1  0.004  0.003  0.102-   5 1.57   6 1.57   7 1.57   3 1.72   2 1.72   4 1.72
   2  0.359  0.003  0.101-   6 1.56   5 1.65   7 1.65   1 1.72
   3  0.004  0.358  0.101-   7 1.56   6 1.65   5 1.65   1 1.72
   4  0.649  0.648  0.101-   5 1.56   7 1.65   6 1.65   1 1.72
   5  0.328  0.326  0.101-   4 1.56   1 1.57   2 1.65   3 1.65
   6  0.681  0.003  0.101-   2 1.56   1 1.57   3 1.65   4 1.65
   7  0.004  0.679  0.101-   3 1.56   1 1.57   4 1.65   2 1.65
   8  0.000  0.500  0.335-   9 1.40  11 1.40  13 1.40
   9  0.167  0.333  0.335-   8 1.40  12 1.40  10 1.40
  10  0.000  0.000  0.335-  11 1.40   9 1.40  15 1.40
  11  0.167  0.833  0.335-  14 1.40   8 1.40  10 1.40
  12  0.500  0.500  0.335-  15 1.40   9 1.40  13 1.40
  13  0.667  0.333  0.335-  12 1.40   8 1.40  14 1.40
  14  0.500  0.000  0.335-  11 1.40  15 1.40  13 1.40
  15  0.667  0.833  0.335-  12 1.40  14 1.40  10 1.40

  LATTYP: Found a hexagonal cell.
 ALAT       =     4.8460000000
 C/A-ratio  =     3.0953363599

  Lattice vectors:

 A1 = (   4.1967591067,   2.4230000000,   0.0000000000)
 A2 = (  -4.1967591067,   2.4230000000,   0.0000000000)
 A3 = (   0.0000000000,   0.0000000000,  15.0000000000)

Analysis of symmetry for initial positions (statically):
 Subroutine PRICEL returns:
 Original cell was already a primitive cell.

 Routine SETGRP: Setting up the symmetry group for a
 hexagonal supercell.

 Subroutine GETGRP returns: Found  1 space group operations
 (whereof  1 operations were pure point group operations)
 out of a pool of 24 trial point group operations.

The static configuration has the point symmetry C_1 .

Analysis of symmetry for dynamics (positions and initial velocities):
 Subroutine PRICEL returns:
 Original cell was already a primitive cell.

 Routine SETGRP: Setting up the symmetry group for a
 hexagonal supercell.

 Subroutine GETGRP returns: Found  1 space group operations
 (whereof  1 operations were pure point group operations)
 out of a pool of 24 trial point group operations.

The dynamic configuration has the point symmetry C_1 .

 Subroutine INISYM returns: Found  1 space group operations
 (whereof  1 operations are pure point group operations),
 and found     1 'primitive' translations

                                     Primitive cell

  volume of cell :     305.0624

  direct lattice vectors                    reciprocal lattice vectors
     4.196759107  2.423000000  0.000000000     0.119139552  0.206355757  0.000000000
    -4.196759107  2.423000000  0.000000000    -0.119139552  0.206355757  0.000000000
     0.000000000  0.000000000 15.000000000     0.000000000  0.000000000  0.066666667

  length of vectors
     4.846000000  4.846000000 15.000000000     0.238279104  0.238279104  0.066666667

  position of ions in fractional coordinates (direct lattice)
     0.004056526  0.002697343  0.101501060
     0.359245494  0.002978704  0.100711409
     0.003767832  0.357599513  0.100712169
     0.649148177  0.647506274  0.100708602
     0.327784757  0.326144145  0.100730862
     0.680601878  0.002974890  0.100730542
     0.003770558  0.678959212  0.100727858
     0.000132595  0.500063036  0.335115331
     0.166783864  0.333452843  0.335150012
     0.000115386  0.000071038  0.335075930
     0.166825953  0.833402697  0.335153906
     0.500125878  0.500099855  0.335118110
     0.666781160  0.333405941  0.335013099
     0.500087443  0.000053650  0.335113676
     0.666733165  0.833358192  0.335150101

  ion indices of the primitive-cell ions
   primitive index   ion index
                 1           1
                 2           2
                 3           3
                 4           4
                 5           5
                 6           6
                 7           7
                 8           8
                 9           9
                10          10
                11          11
                12          12
                13          13
                14          14
                15          15

 KPOINTS: k-points

Automatic generation of k-mesh.
 Grid dimensions read from file:
 generate k-points for:   17   17    1

 Generating k-lattice:

  Cartesian coordinates                     Fractional coordinates (reciprocal lattice)
     0.007008209  0.012138574  0.000000000     0.058823529  0.000000000  0.000000000
    -0.007008209  0.012138574  0.000000000     0.000000000  0.058823529  0.000000000
     0.000000000  0.000000000  0.066666667     0.000000000  0.000000000  1.000000000

  Length of vectors
     0.014016418  0.014016418  0.066666667

  Shift w.r.t. Gamma in fractional coordinates (k-lattice)
     0.000000000  0.000000000  0.000000000

 Subroutine IBZKPT returns following result:

 Found    145 irreducible k-points:

 Following reciprocal coordinates:
            Coordinates               Weight
  0.000000  0.000000  0.000000      1.000000
  0.058824 -0.000000  0.000000      2.000000
 -0.000000  0.058824  0.000000      2.000000
 -0.058824  0.058824  0.000000      2.000000
  0.117647  0.000000  0.000000      2.000000
  0.000000  0.117647  0.000000      2.000000
 -0.117647  0.117647  0.000000      2.000000
  0.176471  0.000000  0.000000      2.000000
  0.000000  0.176471  0.000000      2.000000
 -0.176471  0.176471  0.000000      2.000000
  0.235294  0.000000  0.000000      2.000000
  0.000000  0.235294  0.000000      2.000000
 -0.235294  0.235294  0.000000      2.000000
  0.294118 -0.000000  0.000000      2.000000
 -0.000000  0.294118  0.000000      2.000000
 -0.294118  0.294118  0.000000      2.000000
  0.352941 -0.000000  0.000000      2.000000
 -0.000000  0.352941  0.000000      2.000000
 -0.352941  0.352941  0.000000      2.000000
  0.411765 -0.000000  0.000000      2.000000
 -0.000000  0.411765  0.000000      2.000000
 -0.411765  0.411765  0.000000      2.000000
  0.470588  0.000000  0.000000      2.000000
  0.000000  0.470588  0.000000      2.000000
 -0.470588  0.470588  0.000000      2.000000
  0.058824  0.058824  0.000000      2.000000
 -0.058824  0.117647  0.000000      2.000000
 -0.117647  0.058824  0.000000      2.000000
  0.117647  0.058824  0.000000      2.000000
 -0.058824  0.176471  0.000000      2.000000
 -0.176471  0.117647  0.000000      2.000000
 -0.117647  0.176471  0.000000      2.000000
  0.058824  0.117647  0.000000      2.000000
  0.176471 -0.058824  0.000000      2.000000
  0.176471  0.058824  0.000000      2.000000
 -0.058824  0.235294  0.000000      2.000000
 -0.235294  0.176471  0.000000      2.000000
 -0.176471  0.235294  0.000000      2.000000
  0.058824  0.176471  0.000000      2.000000
  0.235294 -0.058824  0.000000      2.000000
  0.235294  0.058824  0.000000      2.000000
 -0.058824  0.294118  0.000000      2.000000
 -0.294118  0.235294  0.000000      2.000000
 -0.235294  0.294118  0.000000      2.000000
  0.058824  0.235294  0.000000      2.000000
  0.294118 -0.058824  0.000000      2.000000
  0.294118  0.058824  0.000000      2.000000
 -0.058824  0.352941  0.000000      2.000000
 -0.352941  0.294118  0.000000      2.000000
 -0.294118  0.352941  0.000000      2.000000
  0.058824  0.294118  0.000000      2.000000
  0.352941 -0.058824  0.000000      2.000000
  0.352941  0.058824  0.000000      2.000000
 -0.058824  0.411765  0.000000      2.000000
 -0.411765  0.352941  0.000000      2.000000
 -0.352941  0.411765  0.000000      2.000000
  0.058824  0.352941  0.000000      2.000000
  0.411765 -0.058824  0.000000      2.000000
  0.411765  0.058824  0.000000      2.000000
 -0.058824  0.470588  0.000000      2.000000
[...]
 -0.294118 -0.470588  0.000000      2.000000
  0.235294  0.294118  0.000000      2.000000
 -0.470588 -0.235294  0.000000      2.000000
  0.352941  0.235294  0.000000      2.000000
 -0.235294 -0.411765  0.000000      2.000000
  0.411765  0.352941  0.000000      2.000000
 -0.352941 -0.411765  0.000000      2.000000
  0.235294  0.352941  0.000000      2.000000
 -0.411765 -0.235294  0.000000      2.000000
  0.294118  0.294118  0.000000      2.000000
 -0.294118 -0.411765  0.000000      2.000000
  0.411765  0.294118  0.000000      2.000000
  0.352941  0.294118  0.000000      2.000000
 -0.294118 -0.352941  0.000000      2.000000
  0.352941  0.352941  0.000000      2.000000

 Following cartesian coordinates:
            Coordinates               Weight
  0.000000  0.000000  0.000000      1.000000
  0.007008  0.012139  0.000000      2.000000
 -0.007008  0.012139  0.000000      2.000000
 -0.014016  0.000000  0.000000      2.000000
  0.014016  0.024277  0.000000      2.000000
 -0.014016  0.024277  0.000000      2.000000
 -0.028033  0.000000  0.000000      2.000000
  0.021025  0.036416  0.000000      2.000000
 -0.021025  0.036416  0.000000      2.000000
 -0.042049  0.000000  0.000000      2.000000
  0.028033  0.048554  0.000000      2.000000
 -0.028033  0.048554  0.000000      2.000000
 -0.056066  0.000000  0.000000      2.000000
  0.035041  0.060693  0.000000      2.000000
[...]
 apply_gfac_exchange                 36543.647702    ********
 rpromu_hf                           21973.832770     5447650
 racc0mu_hf_                         21503.397381     5321935
 fock_set_gfac_vkpt                  11443.706715     5321935
 depsum_two_bands_rholm_trace_        3457.206583    ********
 calc_dllmm_trans                     2965.108843    ********
 m_ibcast_z_from                      2641.622535     1774945
 fock_fwd                             2245.479569       18270
 phaser_hf                            2081.174611     5321935
 lapack                               1725.857225       29430
 m_sumb_d                             1042.549563      162202
 m_alltoall_d                          835.547656      362650
 fftwav                                490.909587     2717005
 overl_fock                            483.381423    ********
 fock_all_dblbuf                       339.077684          63
 fft3d_mpi                             297.077945    ********
 w1_copy                               232.132971     2779250
 total_time                            155.868301           1
 m_bcast_z                             149.010334       99031
 fock_set_fsg                          147.842741          23
 apply_gfac_weight                     104.619337     1215245
 depsum_two_bands_rholm_trace_m         99.242360     5321935
 pdssyex_zheevx                         88.373508        2755
 waitgth                                87.630353       18270
 depsum_two_bands_rholm_trace           87.516820    ********
 vhamil                                 74.208383       32185
 gemm                                   66.484295      617625
 waitred                                58.763251       18270
 phase                                  50.907217       19487
 orth1                                  38.563330       85050
 bg_ppotrf_trtri                        34.669201       10295
 eddav                                  31.111288          44
 proj1                                  26.981553       27350
 fock_charge_mu                         23.536797     5321935
 edwav                                  23.361369          18
 work_mul_crexp                         22.521831      617625
 crexp_mul_wave                         19.167345      410250
 dllmm_trans_eccp_nl_fock               17.416513      125715
 eccp_nl_fock                           17.338842    54686025
 wfinit                                 16.265305           5
 fock_ace_acc_apply                     15.176999       29430
 eccp                                   14.876579       13825
 ggemm                                  14.724696       29430
 pw_charge_trace_mu                     12.734767     5321935
 racc0mu_hf                             12.406005     5321935
 fock_force                              8.652453           1
 orth1_nosubindex                        4.775734       10295
 depsum_two_bands_rholm_trace_m          4.636058     5321935
 sphpro_fast                             4.421479           6
 spher                                   3.758090          11
 fftbas_plan_mpi                         2.991280         299
 m_bcast_d                               2.990220       58882
 dfftw_execute                           2.782562         897
 redis_pw                                2.705051      193600
 fock_bck                                2.564142       18270
 fftwav_mpi                              2.504731     2717005
 apply_precond                           2.437536       23435
 inisym                                  2.413478           1
 fft_and_gather                          2.139514       18415
 lincom_slice                            2.083933       10295
 hamiltmu                                2.060536       29430
 wrk_allocate                            1.997993           1
 force_and_stress                        1.713827           1
 pw_charge                               1.498728        5491
 m_alltoallv_z                           1.311223         337
 lincom                                  1.310558        5365
 fftext_mpi                              1.210493       41320
 w1_dscal                                1.062750        2610
 w1_dot                                  1.041437        5995
 reduce                                  1.035493       18270
 vnlac0                                  0.924653       41175
 w1_daxpy                                0.911517       29430
 kinhamil                                0.896435       32185
 elmin_all                               0.856486           1
 distri_slice                            0.779381       10295
 fornl                                   0.767934           1
 redis_proj                              0.750676      169050
 brgrid                                  0.730599           1
 orthch                                  0.632973          23
 soft_charge_sym                         0.599067          19
 potlok                                  0.588716          19
 projxyz                                 0.570521         145
 densta                                  0.443008          21
 overl1                                  0.399288       38565
 ggaall_grid                             0.352544          20
 set_dd_magatom                          0.234603           2
 orth1_distri                            0.191021       10295
 overl                                   0.176318       64755
 recon_slice                             0.159454       10295
 eddiag                                  0.138338           1
 contraction                             0.109260      125715
 lincom_distri                           0.100374       10295
 setup_precond                           0.090878        5995
 newband                                 0.088527       35425
 fock_ace_construct                      0.078247          44
 crpa_reader                             0.065772           1
 FERMAT_RAZOR                            0.060282           1
 w1_projall                              0.055359       23435
 depsum_sym                              0.051951          19
 posmap                                  0.045602           2
 setdij_                                 0.034116          27
 augmentation_charge                     0.033327          19
 pothar                                  0.032228          19
 proj                                    0.032178        1305
 set_charge                              0.028637          19
 choleski                                0.023078       10295
 rspher_all                              0.022945           4
 set_dd_paw                              0.022707          20
 forhar                                  0.018295           1
 m_sum_g                                 0.016125       20590
 hamilt_local                            0.014523        2755
 proall                                  0.011580           5
 truncate_high_frequency_w1              0.010265       35425
 map_scatter                             0.009969         337
 map_gather                              0.009755         337
 fft_gq                                  0.005070          19
 redis_pw_all                            0.002244          18
 rsp                                     0.001119           1
 fewald                                  0.001021           1
 forloc                                  0.000913           1
 vectorpot                               0.000543           1
 map_backward                            0.000423         316
 map_forward                             0.000409         282
 stufak                                  0.000406           1
 fftbrc_mpi                              0.000193         299
 wrk_deallocate                          0.000046           1
 rcp                                     0.000035           1
 shift_bands_between_low_high            0.000023         145
 redis_pw_over_bands                     0.000021          19
 fordep                                  0.000014           1
 potlok_metagga                          0.000008          19
 rotate_active_occupied_orbital          0.000001           1
  summed up times    595432.509713888

 Accumulative profile

 total_time                         595432.509714           1
 fock_all_dblbuf                    587946.406348          63
 fock_fwd                           534795.493868       18270
 fft3d                              294953.170217    ********
 fft3d_mpi                          293390.063133    ********
 elmin_all                          177365.945662           1
 edwav                              168074.417382          18
 fock_charge_mu                      99544.378747     5321935
 pw_charge_trace_mu                  74356.436743     5321935
 pw_charge_trace_mu_                 74343.701976     5321935
 vhamil_trace                        64185.697934    ********
 reduce                              50059.663695       18270
 m_ireduce_z_to                      50058.628202     1753920
 apply_gfac_exchange                 36543.647702    ********
 rpromu_hf                           21973.832770     5447650
 racc0mu_hf                          21515.803386     5321935
 racc0mu_hf_                         21503.397381     5321935
 fock_set_gfac_vkpt                  13524.881325     5321935
 eddiag                               9269.736651           1
 eddav                                3880.627338          44
 depsum_two_bands_rholm_trace_m       3648.601821     5321935
 depsum_two_bands_rholm_trace_m       3643.965764     5321935
 depsum_two_bands_rholm_trace         3544.723403    ********
 depsum_two_bands_rholm_trace_        3457.206583    ********
 calc_dllmm_trans                     2965.108843    ********
 force_and_stress                     2744.648229           1
 fock_force                           2740.831443           1
 fft_and_gather                       2705.990631       18415
 m_ibcast_z_from                      2641.622535     1774945
 fftwav_mpi                           2360.705160     2717005
 fftwav                               2358.200429     2717005
 phaser_hf                            2081.174611     5321935
 lapack                               1725.857225       29430
 m_sumb_d                             1042.549563      162202
 m_alltoall_d                          835.547656      362650
 redis_pw                              645.072836      193600
 overl_fock                            483.381423    ********
 fock_ace_acc_apply                    332.542947       29430
 w1_copy                               232.132971     2779250
 redis_proj                            193.930547      169050
 hamiltmu                              173.153115       29430
 fftext_mpi                            161.008815       41320
 m_bcast_z                             149.010334       99031
 fock_set_fsg                          147.842741          23
 fock_bck                              139.746308       18270
 fock_ace_construct                    123.715987          44
 dllmm_trans_eccp_nl_fock              119.519722      125715
 apply_gfac_weight                     104.619337     1215245
 vnlac0                                 89.930779       41175
 pdssyex_zheevx                         88.373508        2755
 waitgth                                87.630353       18270
 vhamil                                 74.208383       32185
 gemm                                   66.484295      617625
 kinhamil                               63.648450       32185
 waitred                                58.763251       18270
 m_sum_g                                55.931688       20590
 phase                                  50.907217       19487
 newband                                46.848028       35425
 proj1                                  46.148897       27350
 orthch                                 45.412729          23
 w1_projall                             40.466117       23435
 orth1                                  38.563330       85050
 orth1_distri                           35.245199       10295
 choleski                               34.692279       10295
 bg_ppotrf_trtri                        34.669201       10295
 wfinit                                 33.946769           5
 lincom_distri                          28.776386       10295
 work_mul_crexp                         22.521831      617625
 crexp_mul_wave                         19.167345      410250
 set_charge                             18.828554          19
 soft_charge_sym                        18.321235          19
 eccp_nl_fock                           17.338842    54686025
 eccp                                   14.876579       13825
 ggemm                                  14.724696       29430
 hamilt_local                           13.750741        2755
 wrk_allocate                            8.296938           1
 redis_pw_over_bands                     8.040569          19
 redis_pw_all                            8.040548          18
 fftbrc_mpi                              7.105814         299
 fftbas_plan_mpi                         7.105621         299
 proall                                  4.905139           5
 sphpro_fast                             4.802721           6
 orth1_nosubindex                        4.775734       10295
 fft_gq                                  4.329746          19
 spher                                   3.758090          11
 m_bcast_d                               2.990220       58882
 dfftw_execute                           2.782562         897
 potlok                                  2.519806          19
 inisym                                  2.459080           1
 apply_precond                           2.437536       23435
 lincom_slice                            2.083933       10295
 fornl                                   1.679081           1
 pw_charge                               1.498728        5491
 m_alltoallv_z                           1.311223         337
 lincom                                  1.310558        5365
 proj                                    1.255646        1305
 w1_dscal                                1.062750        2610
 w1_dot                                  1.041437        5995
 w1_daxpy                                0.911517       29430
 map_backward                            0.846688         316
 set_dd_paw                              0.834277          20
 distri_slice                            0.779381       10295
 brgrid                                  0.730599           1
 densta                                  0.726037          21
 projxyz                                 0.570560         145
 map_forward                             0.485091         282
 overl1                                  0.399288       38565
 ggaall_grid                             0.352544          20
 depsum_sym                              0.247530          19
 set_dd_magatom                          0.234603           2
 augmentation_charge                     0.231151          19
 overl                                   0.176318       64755
 recon_slice                             0.159454       10295
 contraction                             0.109260      125715
 setup_precond                           0.090878        5995
 crpa_reader                             0.065772           1
 FERMAT_RAZOR                            0.060282           1
 setdij_                                 0.059072          27
 posmap                                  0.045602           2
 pothar                                  0.039692          19
 rspher_all                              0.022945           4
 forhar                                  0.018932           1
 fewald                                  0.015437           1
 truncate_high_frequency_w1              0.010265       35425
 map_scatter                             0.009969         337
 map_gather                              0.009755         337
 fordep                                  0.005296           1
 forloc                                  0.001862           1
 rsp                                     0.001119           1
 vectorpot                               0.000543           1
 stufak                                  0.000406           1
 wrk_deallocate                          0.000046           1
 rcp                                     0.000035           1
 shift_bands_between_low_high            0.000023         145
 potlok_metagga                          0.000008          19
 rotate_active_occupied_orbital          0.000001           1

Profiling took 443.536346259.287043  0.999681  0.999609 seconds
Profiling took 445.259463 seconds