 vasp.6.3.2 27Jun22 (build Dec 22 2022 13:13:19) complex

 executed on             LinuxIFC date 2024.03.04  18:56:16

 INCAR:
   SYSTEM = BS
   ISTART = 0
   ICHARG = 11
   PREC = Accurate
   LORBIT = 11
   ENCUT = 450
   ALGO = Normal
   NELM = 64
   EDIFF = 1E-6
   EDIFFG = -1E-3
   SIGMA = 0.1
   ISMEAR = 0
   GGA = PE
   IVDW = 12
   ISYM = 0

 POTCAR:    PAW_PBE B 06Sep2000
 POTCAR:    PAW_PBE C 08Apr2002
 POTCAR:    PAW_PBE B 06Sep2000
   VRHFIN =B: s2p1

   TITEL  = PAW_PBE B 06Sep2000
   POMASS =   10.811; ZVAL   =    3.000    mass and valenz
   ENMAX  =  318.614; ENMIN  =  238.960 eV

   TITEL  = PAW_PBE C 08Apr2002
   POMASS =   12.011; ZVAL   =    4.000    mass and valenz
   ENMAX  =  400.000; ENMIN  =  300.000 eV

  PAW_PBE B 06Sep2000                   :
  PAW_PBE C 08Apr2002                   :

 POSCAR: Graphene-BC3 Hollow with lattice paramet
  positions in direct lattice
  velocities in cartesian coordinates
 exchange correlation table for  LEXCH =        8
   RHO(1)=    0.500       N(1)  =     2000
   RHO(2)=  100.500       N(2)  =     4000

 VTST: version 4.2, (08/11/21)

 CHAIN: initializing optimizer

 OPT: Using VASP Dynamics algorithm
 CHAIN: Read ICHAIN            0

 POSCAR: Graphene-BC3 Hollow with lattice paramet
  positions in direct lattice
  velocities in cartesian coordinates

 ion  position               nearest neighbor table
   1  0.338  0.669  0.113-   7 1.52   5 1.52   3 1.52
   2  0.672  0.336  0.113-   8 1.52   6 1.52   4 1.52
   3  0.164  0.322  0.113-   4 1.39   6 1.39   1 1.52
   4  0.324  0.162  0.113-   5 1.39   3 1.39   2 1.52
   5  0.164  0.843  0.113-   4 1.39   8 1.39   1 1.52
   6  0.845  0.162  0.113-   7 1.39   3 1.39   2 1.52
   7  0.686  0.843  0.113-   6 1.39   8 1.39   1 1.52
   8  0.845  0.683  0.113-   7 1.39   5 1.39   2 1.52
   9  0.333  0.167  0.338-  10 1.46  12 1.46  14 1.46
  10  0.500  0.000  0.338-   9 1.46  13 1.46  11 1.46
  11  0.333  0.667  0.338-  16 1.46  12 1.46  10 1.46
  12  0.500  0.500  0.338-   9 1.46  15 1.46  11 1.46
  13  0.833  0.167  0.338-  16 1.46  10 1.46  14 1.46
  14  0.000  0.000  0.338-   9 1.46  13 1.46  15 1.46
  15  0.833  0.667  0.338-  16 1.46  12 1.46  14 1.46
  16  0.000  0.500  0.338-  15 1.46  13 1.46  11 1.46

IMPORTANT INFORMATION: All symmetrisations will be switched off!
NOSYMM: (Re-)initialisation of all symmetry stuff for point group C_1.

                                     Primitive cell

  volume of cell :     330.5004

  direct lattice vectors                    reciprocal lattice vectors
     4.368232137  2.522000000  0.000000000     0.114462781  0.198255353  0.000000000
    -4.368232137  2.522000000  0.000000000    -0.114462781  0.198255353  0.000000000
     0.000000000  0.000000000 15.000000000     0.000000000  0.000000000  0.066666667

  length of vectors
     5.044000000  5.044000000 15.000000000     0.228925563  0.228925563  0.066666667

  position of ions in fractional coordinates (direct lattice)
     0.338203334  0.669098661  0.113381622
     0.671538623  0.335766770  0.113066104
     0.164492162  0.321676120  0.113073872
     0.324038669  0.162015918  0.113080124
     0.164492146  0.842809624  0.113074202
     0.845282693  0.162014532  0.113070458
     0.685620398  0.842806916  0.113065505
     0.845283256  0.683261954  0.113070868
     0.333481117  0.166743137  0.338140385
     0.500169288  0.000150954  0.338117411
     0.333461746  0.666733449  0.337831925
     0.500169285  0.500023737  0.338117409
     0.833456475  0.166744471  0.338135786
     0.000131755  0.000068577  0.338120511
     0.833456492  0.666717201  0.338135817
     0.000047897  0.500026647  0.338118001

  ion indices of the primitive-cell ions
   primitive index   ion index
                 1           1
                 2           2
                 3           3
                 4           4
                 5           5
                 6           6
                 7           7
                 8           8
                 9           9
                10          10
                11          11
                12          12
                13          13
                14          14
                15          15
                16          16

 KPOINTS: K-points

Interpolating k-points between supplied coordinates.

 Line segments in fractional coordinates (reciprocal lattice):
    0.000000  0.000000  0.000000  ...  0.333000  0.333000  0.000000
    0.333000  0.333000  0.000000  ...  0.000000  0.500000  0.000000
    0.000000  0.500000  0.000000  ...  0.000000  0.000000  0.000000

 Generated   128 points on each line segment, for a total of    384 k-points:

 Following reciprocal coordinates:
            Coordinates               Weight
  0.000000  0.000000  0.000000      0.002604
  0.002622  0.002622  0.000000      0.002604
  0.005244  0.005244  0.000000      0.002604
  0.007866  0.007866  0.000000      0.002604
  0.010488  0.010488  0.000000      0.002604
  0.013110  0.013110  0.000000      0.002604
  0.015732  0.015732  0.000000      0.002604
  0.018354  0.018354  0.000000      0.002604
  0.020976  0.020976  0.000000      0.002604
  0.023598  0.023598  0.000000      0.002604
  0.026220  0.026220  0.000000      0.002604
  0.028843  0.028843  0.000000      0.002604
  0.031465  0.031465  0.000000      0.002604
  0.034087  0.034087  0.000000      0.002604
  0.036709  0.036709  0.000000      0.002604
  0.039331  0.039331  0.000000      0.002604
  0.041953  0.041953  0.000000      0.002604
  0.044575  0.044575  0.000000      0.002604
  0.047197  0.047197  0.000000      0.002604
  0.049819  0.049819  0.000000      0.002604
  0.052441  0.052441  0.000000      0.002604
  0.055063  0.055063  0.000000      0.002604
  0.057685  0.057685  0.000000      0.002604
  0.060307  0.060307  0.000000      0.002604
  0.062929  0.062929  0.000000      0.002604
  0.065551  0.065551  0.000000      0.002604
  0.068173  0.068173  0.000000      0.002604
  0.070795  0.070795  0.000000      0.002604
  0.073417  0.073417  0.000000      0.002604
  0.076039  0.076039  0.000000      0.002604
  0.078661  0.078661  0.000000      0.002604
  0.081283  0.081283  0.000000      0.002604
  0.083906  0.083906  0.000000      0.002604
  0.086528  0.086528  0.000000      0.002604
  0.089150  0.089150  0.000000      0.002604
  0.091772  0.091772  0.000000      0.002604
  0.094394  0.094394  0.000000      0.002604
  0.097016  0.097016  0.000000      0.002604
  0.099638  0.099638  0.000000      0.002604
  0.102260  0.102260  0.000000      0.002604
  0.104882  0.104882  0.000000      0.002604
  0.107504  0.107504  0.000000      0.002604
  0.110126  0.110126  0.000000      0.002604
  0.112748  0.112748  0.000000      0.002604
  0.115370  0.115370  0.000000      0.002604
  0.117992  0.117992  0.000000      0.002604
  0.120614  0.120614  0.000000      0.002604
  0.123236  0.123236  0.000000      0.002604
  0.125858  0.125858  0.000000      0.002604
  0.128480  0.128480  0.000000      0.002604
  0.131102  0.131102  0.000000      0.002604
  0.133724  0.133724  0.000000      0.002604
  0.136346  0.136346  0.000000      0.002604
  0.138969  0.138969  0.000000      0.002604
  0.141591  0.141591  0.000000      0.002604
  0.144213  0.144213  0.000000      0.002604
  0.146835  0.146835  0.000000      0.002604
  0.149457  0.149457  0.000000      0.002604
  0.152079  0.152079  0.000000      0.002604
  0.154701  0.154701  0.000000      0.002604
[...]
  0.000000  0.055118  0.000000      0.002604
  0.000000  0.051181  0.000000      0.002604
  0.000000  0.047244  0.000000      0.002604
  0.000000  0.043307  0.000000      0.002604
  0.000000  0.039370  0.000000      0.002604
  0.000000  0.035433  0.000000      0.002604
  0.000000  0.031496  0.000000      0.002604
  0.000000  0.027559  0.000000      0.002604
  0.000000  0.023622  0.000000      0.002604
  0.000000  0.019685  0.000000      0.002604
  0.000000  0.015748  0.000000      0.002604
  0.000000  0.011811  0.000000      0.002604
  0.000000  0.007874  0.000000      0.002604
  0.000000  0.003937  0.000000      0.002604
  0.000000  0.000000  0.000000      0.002604

 Following cartesian coordinates:
            Coordinates               Weight
  0.000000  0.000000  0.000000      0.002604
  0.000000  0.001040  0.000000      0.002604
  0.000000  0.002079  0.000000      0.002604
 -0.000000  0.003119  0.000000      0.002604
  0.000000  0.004159  0.000000      0.002604
  0.000000  0.005198  0.000000      0.002604
 -0.000000  0.006238  0.000000      0.002604
 -0.000000  0.007278  0.000000      0.002604
  0.000000  0.008317  0.000000      0.002604
  0.000000  0.009357  0.000000      0.002604
  0.000000  0.010397  0.000000      0.002604
 -0.000000  0.011436  0.000000      0.002604
 -0.000000  0.012476  0.000000      0.002604
 -0.000000  0.013516  0.000000      0.002604
 -0.000000  0.014555  0.000000      0.002604
 -0.000000  0.015595  0.000000      0.002604
  0.000000  0.016635  0.000000      0.002604
 -0.000000  0.017674  0.000000      0.002604
  0.000000  0.018714  0.000000      0.002604
 -0.000000  0.019754  0.000000      0.002604
  0.000000  0.020793  0.000000      0.002604
 -0.000000  0.021833  0.000000      0.002604
 -0.000000  0.022873  0.000000      0.002604
  0.000000  0.023912  0.000000      0.002604
 -0.000000  0.024952  0.000000      0.002604
  0.000000  0.025992  0.000000      0.002604
 -0.000000  0.027031  0.000000      0.002604
  0.000000  0.028071  0.000000      0.002604
 -0.000000  0.029111  0.000000      0.002604
 -0.000000  0.030150  0.000000      0.002604
 -0.000000  0.031190  0.000000      0.002604
  0.000000  0.032230  0.000000      0.002604
  0.000000  0.033269  0.000000      0.002604
 -0.000000  0.034309  0.000000      0.002604
 -0.000000  0.035349  0.000000      0.002604
  0.000000  0.036388  0.000000      0.002604
  0.000000  0.037428  0.000000      0.002604
 -0.000000  0.038468  0.000000      0.002604
 -0.000000  0.039507  0.000000      0.002604
 -0.000000  0.040547  0.000000      0.002604
  0.000000  0.041587  0.000000      0.002604
  0.000000  0.042626  0.000000      0.002604
 -0.000000  0.043666  0.000000      0.002604
 -0.000000  0.044706  0.000000      0.002604
 -0.000000  0.045745  0.000000      0.002604
  0.000000  0.046785  0.000000      0.002604
  0.000000  0.047825  0.000000      0.002604
 -0.000000  0.048864  0.000000      0.002604
 -0.000000  0.049904  0.000000      0.002604
  0.000000  0.050944  0.000000      0.002604
  0.000000  0.051983  0.000000      0.002604
 -0.000000  0.053023  0.000000      0.002604
 -0.000000  0.054063  0.000000      0.002604
  0.000000  0.055102  0.000000      0.002604
  0.000000  0.056142  0.000000      0.002604
  0.000000  0.057182  0.000000      0.002604
 -0.000000  0.058222  0.000000      0.002604
 -0.000000  0.059261  0.000000      0.002604
 -0.000000  0.060301  0.000000      0.002604
 -0.000000  0.061341  0.000000      0.002604
[...]
 -0.006309  0.010927  0.000000      0.002604
 -0.005858  0.010147  0.000000      0.002604
 -0.005408  0.009366  0.000000      0.002604
 -0.004957  0.008586  0.000000      0.002604
 -0.004506  0.007805  0.000000      0.002604
 -0.004056  0.007025  0.000000      0.002604
[...]
 k-point  47 :   0.1206 0.1206 0.0000  plane waves:    7165
 k-point  48 :   0.1232 0.1232 0.0000  plane waves:    7165
 k-point  49 :   0.1259 0.1259 0.0000  plane waves:    7169
 k-point  50 :   0.1285 0.1285 0.0000  plane waves:    7169
 k-point  51 :   0.1311 0.1311 0.0000  plane waves:    7161
 k-point  52 :   0.1337 0.1337 0.0000  plane waves:    7163
 k-point  53 :   0.1363 0.1363 0.0000  plane waves:    7163
 k-point  54 :   0.1390 0.1390 0.0000  plane waves:    7163
 k-point  55 :   0.1416 0.1416 0.0000  plane waves:    7163
 k-point  56 :   0.1442 0.1442 0.0000  plane waves:    7169
 k-point  57 :   0.1468 0.1468 0.0000  plane waves:    7169
 k-point  58 :   0.1495 0.1495 0.0000  plane waves:    7175
 k-point  59 :   0.1521 0.1521 0.0000  plane waves:    7177
 k-point  60 :   0.1547 0.1547 0.0000  plane waves:    7173
[...]
 k-point 370 :   0.0000 0.0551 0.0000  plane waves:    7159
 k-point 371 :   0.0000 0.0512 0.0000  plane waves:    7157
 k-point 372 :   0.0000 0.0472 0.0000  plane waves:    7157
 k-point 373 :   0.0000 0.0433 0.0000  plane waves:    7153
 k-point 374 :   0.0000 0.0394 0.0000  plane waves:    7153
 k-point 375 :   0.0000 0.0354 0.0000  plane waves:    7153
 k-point 376 :   0.0000 0.0315 0.0000  plane waves:    7149
 k-point 377 :   0.0000 0.0276 0.0000  plane waves:    7135
 k-point 378 :   0.0000 0.0236 0.0000  plane waves:    7131
 k-point 379 :   0.0000 0.0197 0.0000  plane waves:    7133
 k-point 380 :   0.0000 0.0157 0.0000  plane waves:    7125
 k-point 381 :   0.0000 0.0118 0.0000  plane waves:    7127
 k-point 382 :   0.0000 0.0079 0.0000  plane waves:    7133
 k-point 383 :   0.0000 0.0039 0.0000  plane waves:    7137
 k-point 384 :   0.0000 0.0000 0.0000  plane waves:    7149

 maximum and minimum number of plane-waves per node :      7189     7115

 maximum number of plane-waves:      7189
 maximum index in each direction:
   IXMAX=    8   IYMAX=    8   IZMAX=   25
   IXMIN=   -9   IYMIN=   -9   IZMIN=  -25

 serial   3D FFT for wavefunctions
 parallel 3D FFT for charge:
    minimum data exchange during FFTs selected (reduces bandwidth)

 initial charge density was supplied:
 number of electron      62.0000005 magnetization
 keeping initial charge density in first step

 Maximum index for augmentation-charges          376 (set IRDMAX)

 First call to EWALD:  gamma=   0.256
 Maximum number of real-space cells 4x 4x 2
 Maximum number of reciprocal cells 2x 2x 5

--------------------------------------- Iteration      1(   1)  ---------------------------------------

 eigenvalue-minimisations  : 36864
 total energy-change (2. order) : 0.2197718E+03  (-0.2696379E+04)
 number of electron      62.0000005 magnetization
 augmentation part       62.0000005 magnetization

 Free energy of the ion-electron system (eV)
  alpha Z        PSCENC =        62.53960761
  Ewald energy   TEWEN  =      5474.65236662
  -Hartree energ DENC   =     -7524.43146131
  -exchange      EXHF   =         0.00000000
  -V(xc)+E(xc)   XCENC  =       206.35057954
  PAW double counting   =      6299.13068495    -6307.13708575
  entropy T*S    EENTRO =        -0.02097486
  eigenvalues    EBANDS =      -193.67088766
  atomic energy  EATOM  =      2202.35892741
  Solvation  Ediel_sol  =         0.00000000
  free energy    TOTEN  =       219.77175654 eV

  energy without entropy =      219.79273140  energy(sigma->0) =      219.78224397

[...]

 eigenvalue-minimisations  : 58752
 total energy-change (2. order) :-0.3451670E+03  (-0.3438520E+03)
 number of electron      62.0000005 magnetization
 augmentation part       62.0000005 magnetization

[...]

--------------------------------------- Iteration      1(   6)  ---------------------------------------

 eigenvalue-minimisations  : 59760
 total energy-change (2. order) :-0.1474236E-06  (-0.1474451E-06)
 number of electron      62.0000005 magnetization
 augmentation part       62.0000005 magnetization

 Free energy of the ion-electron system (eV)
  alpha Z        PSCENC =        62.53960761
  Ewald energy   TEWEN  =      5474.65236662
  -Hartree energ DENC   =     -7524.43146131
  -exchange      EXHF   =         0.00000000
  -V(xc)+E(xc)   XCENC  =       206.35057954
  PAW double counting   =      6299.13068495    -6307.13708575
  entropy T*S    EENTRO =        -0.00639116
  eigenvalues    EBANDS =      -553.00168411
  atomic energy  EATOM  =      2202.35892741
  Solvation  Ediel_sol  =         0.00000000
  free energy    TOTEN  =      -139.54445621 eV

  energy without entropy =     -139.53806505  energy(sigma->0) =     -139.54126063

 average (electrostatic) potential at core
  the test charge radii are     0.7672  0.6991
  (the norm of the test charge is              1.0000)
       1 -31.9214       2 -31.9426       3 -54.6128       4 -54.6184       5 -54.6128
       6 -54.6183       7 -54.6125       8 -54.6183       9 -56.4255      10 -56.4303
      11 -56.4410      12 -56.4304      13 -56.4258      14 -56.4369      15 -56.4258
      16 -56.4299

 E-fermi :  -0.9811     XC(G=0):  -5.0871     alpha+bet : -4.9171

 Fermi energy:        -0.9810799598

 k-point     1 :       0.0000    0.0000    0.0000
  band No.  band energies     occupation
      1     -19.8539      2.00000
      2     -18.0196      2.00000
      3     -14.9092      2.00000
      4     -14.9092      2.00000
      5     -14.9077      2.00000
      6     -13.8553      2.00000
      7     -13.8549      2.00000
      8     -13.6838      2.00000
      9     -13.6657      2.00000
     10     -13.6653      2.00000
     11     -11.6804      2.00000
     12     -11.6803      2.00000
     13     -10.6457      2.00000
     14      -9.0719      2.00000
     15      -8.1918      2.00000
     16      -7.0920      2.00000
     17      -7.0920      2.00000
     18      -7.0916      2.00000
     19      -6.6004      2.00000
     20      -6.2586      2.00000
     21      -4.0844      2.00000
     22      -4.0844      2.00000
     23      -3.9221      2.00000
     24      -3.9220      2.00000
     25      -3.1524      2.00000
     26      -3.1495      2.00000
     27      -3.1242      2.00000
     28      -2.2785      2.00000
     29      -2.2735      2.00000
     30      -1.3692      2.00000
     31      -1.3691      2.00000
     32       0.0532      0.00000
     33       0.8011      0.00000
     34       0.8050      0.00000
     35       0.9969      0.00000
     36       2.1404      0.00000
     37       2.1425      0.00000
     38       2.8613      0.00000
     39       2.8810      0.00000
     40       3.6762      0.00000
     41       4.7139      0.00000
     42       5.8469      0.00000
     43       5.8572      0.00000
     44       5.8575      0.00000
     45       7.0224      0.00000
     46       7.0241      0.00000
     47       7.1414      0.00000
     48       7.5028      0.00000

[...]

 k-point   384 :       0.0000    0.0000    0.0000
  band No.  band energies     occupation
      1     -19.8539      2.00000
      2     -18.0196      2.00000
      3     -14.9092      2.00000
      4     -14.9092      2.00000
      5     -14.9077      2.00000
      6     -13.8553      2.00000
      7     -13.8549      2.00000
      8     -13.6838      2.00000
      9     -13.6657      2.00000
     10     -13.6653      2.00000
     11     -11.6804      2.00000
     12     -11.6803      2.00000
     13     -10.6457      2.00000
     14      -9.0719      2.00000
     15      -8.1918      2.00000
     16      -7.0920      2.00000
     17      -7.0920      2.00000
     18      -7.0916      2.00000
     19      -6.6004      2.00000
     20      -6.2586      2.00000
     21      -4.0844      2.00000
     22      -4.0844      2.00000
     23      -3.9221      2.00000
     24      -3.9220      2.00000
     25      -3.1524      2.00000
     26      -3.1495      2.00000
     27      -3.1242      2.00000
     28      -2.2785      2.00000
     29      -2.2735      2.00000
     30      -1.3692      2.00000
     31      -1.3691      2.00000
     32       0.0532      0.00000
     33       0.8011      0.00000
     34       0.8050      0.00000
     35       0.9969      0.00000
     36       2.1404      0.00000
     37       2.1425      0.00000
     38       2.8613      0.00000
     39       2.8810      0.00000
     40       3.6762      0.00000
     41       4.7139      0.00000
     42       5.8469      0.00000
     43       5.8572      0.00000
     44       5.8575      0.00000
     45       7.0224      0.00000
     46       7.0252      0.00000
     47       7.1414      0.00000
     48       7.5028      0.00000

 soft charge-density along one line, spin component           1
         0         1         2         3         4         5         6         7         8         9
 total charge-density along one line

------------------------ aborting loop because EDIFF is reached ----------------------------------------

 total charge

# of ion       s       p       d       tot
    1        0.785   1.413   0.000   2.199
    2        0.785   1.412   0.000   2.197
    3        0.890   1.764   0.000   2.653
    4        0.890   1.813   0.000   2.702
    5        0.889   1.827   0.000   2.716
    6        0.889   1.825   0.000   2.715
    7        0.889   1.814   0.000   2.703
    8        0.890   1.763   0.000   2.653
    9        0.848   1.725   0.000   2.573
   10        0.847   1.719   0.000   2.567
   11        0.847   1.724   0.000   2.572
   12        0.848   1.726   0.000   2.574
   13        0.848   1.725   0.000   2.573
   14        0.848   1.721   0.000   2.569
   15        0.848   1.724   0.000   2.572
   16        0.848   1.725   0.000   2.573
tot         13.688  27.423   0.000  41.111

         DFTD3 V3.0 Rev 1
 IVDW         = 12
 DF pbe
 parameters
 VDW_S6       =    1.0000
 VDW_S8       =    0.7875
 VDW_A1       =    0.4289
 VDW_A2       =    4.4407
 k1-k3        =   16.0000    1.3333   -4.0000
 VDW_RADIUS   =   50.2022 A
 VDW_CNRADIUS =   21.1671 A
 Edisp (eV)   -1.89722

 E6    (eV) :    -1.3195
 E8    (eV) :    -0.5777
 % E8        : 30.45

  FORCE on cell =-STRESS in cart. coord.  units (eV):
  Direction    XX          YY          ZZ          XY          YZ          ZX
  Alpha Z    62.53961    62.53961    62.53961
  Ewald    7447.82282  7447.80034 -9420.97517    -0.01955     0.02735     0.01642
  Hartree  7422.33501  7424.93532 -7320.66205    -1.25484     0.03394    -0.01385
  E(xc)    -226.51057  -226.44945  -234.32738    -0.03534     0.00041    -0.00011
  Local  -15566.66708-15565.44265 15961.01095    -1.33638    -0.06223    -0.00209
  n-local   -51.49676   -50.88843   -37.40389    -0.39826     0.00297    -0.00664
  augment    -4.89983    -4.93940    -4.68494     0.02285     0.00001     0.00011
  Kinetic   927.61494   905.78778   996.20946    12.17785    -0.04204     0.09239
  Fock        0.00000     0.00000     0.00000     0.00000     0.00000     0.00000
  vdW        -1.11855    -1.11860    -1.34847    -0.00005     0.00006     0.00003
  Total       9.61958    -7.77547     0.35811     9.15628    -0.03953     0.08626
  in kB      46.63315   -37.69340     1.73601    44.38720    -0.19163     0.41817

 VOLUME and BASIS-vectors are now :
  energy-cutoff  :      450.00
  volume of cell :      330.50
      direct lattice vectors                 reciprocal lattice vectors
     4.368232137  2.522000000  0.000000000     0.114462781  0.198255353  0.000000000
    -4.368232137  2.522000000  0.000000000    -0.114462781  0.198255353  0.000000000
     0.000000000  0.000000000 15.000000000     0.000000000  0.000000000  0.066666667

  length of vectors
     5.044000000  5.044000000 15.000000000     0.228925563  0.228925563  0.066666667

 FORCES acting on ions
    electron-ion (+dipol)            ewald-force                    non-local-force                 convergence-correction
   -.540E+00 0.509E+00 0.215E+03   -.649E-03 -.155E-02 -.216E+03   -.501E+00 0.553E+00 0.683E-01   0.502E+00 -.541E+00 0.183E+00
   0.499E+00 -.471E+00 0.217E+03   -.134E-02 -.308E-02 -.217E+03   0.500E+00 -.554E+00 -.345E-01   -.482E+00 0.525E+00 0.184E+00
   0.249E+02 -.440E+02 0.289E+03   -.271E+02 0.469E+02 -.289E+03   0.252E+01 -.404E+01 0.172E-01   -.736E-01 0.675E+00 0.243E+00
   -.231E+02 -.447E+02 0.289E+03   0.271E+02 0.469E+02 -.289E+03   -.265E+01 -.317E+01 -.447E-02   -.112E+01 0.797E+00 0.242E+00
   -.500E+02 0.188E+01 0.289E+03   0.541E+02 -.431E-02 -.289E+03   -.391E+01 -.547E+00 0.259E-01   -.622E-01 -.106E+01 0.247E+00
   0.500E+02 -.191E+01 0.289E+03   -.541E+02 0.292E-02 -.289E+03   0.388E+01 0.544E+00 -.362E-02   0.542E-01 0.108E+01 0.241E+00
   0.231E+02 0.446E+02 0.289E+03   -.271E+02 -.469E+02 -.289E+03   0.267E+01 0.320E+01 0.192E-01   0.110E+01 -.771E+00 0.244E+00
   -.249E+02 0.441E+02 0.289E+03   0.271E+02 -.469E+02 -.289E+03   -.250E+01 0.401E+01 0.243E-01   0.796E-01 -.701E+00 0.250E+00
   -.234E+01 0.809E+00 -.272E+03   0.448E+00 0.777E+00 0.272E+03   0.276E+00 -.403E+00 0.846E-01   0.542E+00 -.421E+00 0.310E+00
   0.163E+01 -.142E+01 -.271E+03   0.917E-01 -.975E-01 0.271E+03   -.266E+00 0.406E+00 -.386E-01   -.436E+00 0.381E+00 0.356E+00
   -.161E+01 0.135E+01 -.269E+03   0.847E-02 0.148E-01 0.269E+03   0.286E+00 -.425E+00 0.444E-01   0.356E+00 -.271E+00 0.286E+00
   0.183E+01 -.162E+01 -.271E+03   -.130E+00 0.305E-01 0.271E+03   -.297E+00 0.413E+00 0.796E-01   -.407E+00 0.411E+00 0.236E+00
   -.799E+00 0.170E+01 -.272E+03   -.894E+00 -.163E-01 0.272E+03   0.261E+00 -.410E+00 0.827E-01   0.418E+00 -.477E+00 0.328E+00
   0.173E+01 -.146E+01 -.273E+03   -.130E-01 -.226E-01 0.273E+03   -.274E+00 0.418E+00 0.108E+00   -.424E+00 0.341E+00 0.307E+00
   -.215E+01 0.225E+01 -.272E+03   0.433E+00 -.783E+00 0.272E+03   0.281E+00 -.428E+00 0.461E-01   0.426E+00 -.329E+00 0.242E+00
   0.173E+01 -.164E+01 -.271E+03   0.586E-01 0.101E+00 0.271E+03   -.261E+00 0.429E+00 0.588E-01   -.480E+00 0.368E+00 0.263E+00
   -.356E-02 -.207E-03 -.475E+01   0.181E-13 0.243E-13 -.171E-12   0.888E-02 -.677E-02 0.577E+00   -.769E-02 0.854E-02 0.416E+01

 POSITION                                       TOTAL-FORCE (eV/Angst)
     -1.44543      2.54042      1.70072        -0.539335      0.518267      0.005118
      1.46673      2.54042      1.69599         0.516274     -0.503598      0.001703
     -0.68662      1.22612      1.69611         0.257501     -0.453747      0.008386
      0.70775      1.22583      1.69620         0.211601     -0.187251      0.002783
     -2.96305      2.54042      1.69611         0.207094      0.269017      0.002124
      2.98467      2.54040      1.69606        -0.202005     -0.275442      0.004689
     -0.68663      3.85469      1.69598        -0.210750      0.181220      0.002719
      0.70775      3.85499      1.69606        -0.265223      0.462472      0.013345
      0.72835      1.26157      5.07211        -1.074529      0.761361      0.000332
      2.18420      1.26181      5.07176         1.015676     -0.728403     -0.064523
     -1.45581      2.52249      5.06748        -0.955036      0.669739     -0.005630
      0.00064      2.52249      5.07176         0.996551     -0.761025      0.033762
      2.91235      2.52251      5.07204        -1.013899      0.794818     -0.004342
      0.00028      0.00051      5.07181         1.019213     -0.721934     -0.002851
      0.72836      3.78344      5.07204        -1.012350      0.715241     -0.016415
     -2.18402      1.26119      5.07177         1.049219     -0.740736      0.018801
    total drift:                               -0.002367      0.001558     -0.011100

  FREE ENERGIE OF THE ION-ELECTRON SYSTEM (eV)
  free  energy   TOTEN  =      -141.44167807 eV

  energy  without entropy=     -141.43528691  energy(sigma->0) =     -141.43848249

 stress matrix after NEB project (eV)
      9.61958      9.15628      0.08626
      9.15628     -7.77547     -0.03953
      0.08626     -0.03953      0.35811
  FORCES: max atom, RMS     1.316922    0.957419
  FORCE total and by dimension    3.829678    1.074529
  Stress total and by dimension   17.911326    9.619582
 writing wavefunctions

 total charge

# of ion       s       p       d       tot
    1        0.785   1.413   0.000   2.199
    2        0.785   1.412   0.000   2.197
    3        0.890   1.764   0.000   2.653
    4        0.890   1.813   0.000   2.702
    5        0.889   1.827   0.000   2.716
    6        0.889   1.825   0.000   2.715
    7        0.889   1.814   0.000   2.703
    8        0.890   1.763   0.000   2.653
    9        0.848   1.725   0.000   2.573
   10        0.847   1.719   0.000   2.567
   11        0.847   1.724   0.000   2.572
   12        0.848   1.726   0.000   2.574
   13        0.848   1.725   0.000   2.573
   14        0.848   1.721   0.000   2.569
   15        0.848   1.724   0.000   2.572
   16        0.848   1.725   0.000   2.573
tot         13.688  27.423   0.000  41.111