 vasp.6.4.2 20Jul23 (build Aug 23 2023 19:13:21) complex

 executed on             LinuxIFC date 2023.11.16  22:14:53

 INCAR:
   SYSTEM = BS_HSE06
   ISTART = 1
   ICHARG = 2
   PREC = Accurate
   LORBIT = 11
   ENCUT = 450
   ALGO = Damped
   TIME = 0.4
   NELM = 200
   EDIFF = 1E-6
   EDIFFG = -1E-3
   SIGMA = 0.1
   ISMEAR = 0
   IBRION = -1
   GGA = PE
   LHFCALC = .TRUE.
   AEXX = 0.25
   HFSCREEN = 0.2
   NKRED = 1

 POTCAR:    PAW_PBE B 06Sep2000
 POTCAR:    PAW_PBE C 08Apr2002
 POTCAR:    PAW_PBE B 06Sep2000
   VRHFIN =B: s2p1

   TITEL  = PAW_PBE B 06Sep2000
   POMASS =   10.811; ZVAL   =    3.000    mass and valenz
   ENMAX  =  318.614; ENMIN  =  238.960 eV

   TITEL  = PAW_PBE C 08Apr2002
   POMASS =   12.011; ZVAL   =    4.000    mass and valenz
   ENMAX  =  400.000; ENMIN  =  300.000 eV

  PAW_PBE B 06Sep2000                   :
  PAW_PBE C 08Apr2002                   :

 POSCAR: BC3 with lattice parameter 5.169
  positions in direct lattice
  velocities in cartesian coordinates
 exchange correlation table for  LEXCH =        8
   RHO(1)=    0.500       N(1)  =     2000
   RHO(2)=  100.500       N(2)  =     4000

 VTST: version 4.1, (05/19/21)

 CHAIN: initializing optimizer

 OPT: Using VASP Dynamics algorithm
 CHAIN: Read ICHAIN            0

 POSCAR: BC3 with lattice parameter 5.169
  positions in direct lattice
  velocities in cartesian coordinates

 ion  position               nearest neighbor table
   1  0.338  0.669  0.250-   5 1.56   3 1.56   7 1.56
   2  0.672  0.336  0.250-   6 1.56   4 1.56   8 1.56
   3  0.164  0.320  0.250-   6 1.42   4 1.42   1 1.56
   4  0.322  0.161  0.250-   5 1.42   3 1.42   2 1.56
   5  0.164  0.844  0.250-   4 1.42   8 1.42   1 1.56
   6  0.846  0.161  0.250-   7 1.42   3 1.42   2 1.56
   7  0.688  0.844  0.250-   6 1.42   8 1.42   1 1.56
   8  0.846  0.685  0.250-   7 1.42   5 1.42   2 1.56

  LATTYP: Found a hexagonal cell.
 ALAT       =     5.1689997297
 C/A-ratio  =     2.9019154158

  Lattice vectors:

 A1 = (   4.4764850000,   2.5845000000,   0.0000000000)
 A2 = (  -4.4764850000,   2.5845000000,   0.0000000000)
 A3 = (   0.0000000000,   0.0000000000,  15.0000000000)

Analysis of symmetry for initial positions (statically):
 Subroutine PRICEL returns:
 Original cell was already a primitive cell.

 Routine SETGRP: Setting up the symmetry group for a
 hexagonal supercell.

 Subroutine GETGRP returns: Found 20 space group operations
 (whereof  2 operations were pure point group operations)
 out of a pool of 24 trial point group operations.

The static configuration has the point symmetry C_1h.
 The point group associated with its full space group is C_1h.

Analysis of symmetry for dynamics (positions and initial velocities):
 Subroutine PRICEL returns:
 Original cell was already a primitive cell.

 Routine SETGRP: Setting up the symmetry group for a
 hexagonal supercell.

 Subroutine GETGRP returns: Found 20 space group operations
 (whereof  2 operations were pure point group operations)
 out of a pool of 24 trial point group operations.

The dynamic configuration has the point symmetry C_1h.
 The point group associated with its full space group is C_1h.

 Subroutine INISYM returns: Found 20 space group operations
 (whereof  2 operations are pure point group operations),
 and found     1 'primitive' translations

                                     Primitive cell

  volume of cell :     347.0843

  direct lattice vectors                    reciprocal lattice vectors
     4.476485000  2.584500000  0.000000000     0.111694778  0.193461018  0.000000000
    -4.476485000  2.584500000  0.000000000    -0.111694778  0.193461018  0.000000000
     0.000000000  0.000000000 15.000000000     0.000000000  0.000000000  0.066666667

  length of vectors
     5.168999730  5.168999730 15.000000000     0.223389545  0.223389545  0.066666667

  position of ions in fractional coordinates (direct lattice)
     0.338334189  0.669165089  0.250000000
     0.671666315  0.335831896  0.250000000
     0.163745918  0.319999521  0.250000000
     0.322499481  0.161250266  0.250000000
     0.163754286  0.843749176  0.250000000
     0.846244180  0.161250584  0.250000000
     0.687500016  0.843750111  0.250000000
     0.846251614  0.684999356  0.250000000

  ion indices of the primitive-cell ions
   primitive index   ion index
                 1           1
                 2           2
                 3           3
                 4           4
                 5           5
                 6           6
                 7           7
                 8           8

 KPOINTS: k-points

Automatic generation of k-mesh.
 Grid dimensions read from file:
 generate k-points for:   17   17    1

 Generating k-lattice:

  Cartesian coordinates                     Fractional coordinates (reciprocal lattice)
     0.006570281  0.011380060  0.000000000     0.058823529  0.000000000  0.000000000
    -0.006570281  0.011380060  0.000000000     0.000000000  0.058823529  0.000000000
     0.000000000  0.000000000  0.066666667     0.000000000  0.000000000  1.000000000

  Length of vectors
     0.013140561  0.013140561  0.066666667

  Shift w.r.t. Gamma in fractional coordinates (k-lattice)
     0.000000000  0.000000000  0.000000000

 Subroutine IBZKPT returns following result:

 Found     49 irreducible k-points:

 Following reciprocal coordinates:
            Coordinates               Weight
  0.000000  0.000000  0.000000      1.000000
  0.058824  0.000000  0.000000      6.000000
  0.117647 -0.000000  0.000000      6.000000
  0.176471 -0.000000  0.000000      6.000000
  0.235294 -0.000000  0.000000      6.000000
  0.294118 -0.000000  0.000000      6.000000
  0.352941  0.000000  0.000000      6.000000
  0.411765  0.000000  0.000000      6.000000
  0.470588 -0.000000  0.000000      6.000000
  0.058824  0.058824  0.000000      6.000000
  0.117647  0.058824  0.000000      7.000000
 -0.117647  0.176471  0.000000      5.000000
  0.176471  0.058824  0.000000      7.000000
 -0.176471  0.235294  0.000000      5.000000
  0.235294  0.058824  0.000000      7.000000
 -0.235294  0.294118  0.000000      5.000000
  0.294118  0.058824  0.000000      7.000000
 -0.294118  0.352941  0.000000      5.000000
  0.352941  0.058824  0.000000      7.000000
 -0.352941  0.411765  0.000000      5.000000
  0.411765  0.058824  0.000000      7.000000
 -0.411765  0.470588  0.000000      5.000000
  0.470588  0.058824  0.000000      6.000000
  0.117647  0.117647  0.000000      6.000000
  0.176471  0.117647  0.000000      7.000000
 -0.176471  0.294118  0.000000      5.000000
  0.235294  0.117647  0.000000      7.000000
 -0.235294  0.352941  0.000000      5.000000
  0.294118  0.117647  0.000000      7.000000
 -0.294118  0.411765  0.000000      5.000000
  0.352941  0.117647  0.000000      7.000000
 -0.352941  0.470588  0.000000      5.000000
  0.411765  0.117647  0.000000      7.000000
 -0.411765 -0.470588  0.000000      5.000000
  0.176471  0.176471  0.000000      6.000000
  0.235294  0.176471  0.000000      7.000000
 -0.235294  0.411765  0.000000      5.000000
  0.294118  0.176471  0.000000      7.000000
 -0.294118  0.470588  0.000000      5.000000
  0.352941  0.176471  0.000000      7.000000
 -0.352941 -0.470588  0.000000      5.000000
  0.411765  0.176471  0.000000      6.000000
  0.235294  0.235294  0.000000      6.000000
  0.294118  0.235294  0.000000      7.000000
 -0.294118 -0.470588  0.000000      5.000000
  0.352941  0.235294  0.000000      7.000000
 -0.352941 -0.411765  0.000000      5.000000
  0.294118  0.294118  0.000000      6.000000
  0.352941  0.294118  0.000000      6.000000

 Following cartesian coordinates:
            Coordinates               Weight
  0.000000  0.000000  0.000000      1.000000
  0.006570  0.011380  0.000000      6.000000
  0.013141  0.022760  0.000000      6.000000
  0.019711  0.034140  0.000000      6.000000
  0.026281  0.045520  0.000000      6.000000
  0.032851  0.056900  0.000000      6.000000
  0.039422  0.068280  0.000000      6.000000
  0.045992  0.079660  0.000000      6.000000
  0.052562  0.091040  0.000000      6.000000
  0.000000  0.022760  0.000000      6.000000
  0.006570  0.034140  0.000000      7.000000
 -0.032851  0.011380  0.000000      5.000000
  0.013141  0.045520  0.000000      7.000000
 -0.045992  0.011380  0.000000      5.000000
  0.019711  0.056900  0.000000      7.000000
 -0.059133  0.011380  0.000000      5.000000
  0.026281  0.068280  0.000000      7.000000
 -0.072273  0.011380  0.000000      5.000000
  0.032851  0.079660  0.000000      7.000000
 -0.085414  0.011380  0.000000      5.000000
  0.039422  0.091040  0.000000      7.000000
 -0.098554  0.011380  0.000000      5.000000
  0.045992  0.102421  0.000000      6.000000
 -0.000000  0.045520  0.000000      6.000000
  0.006570  0.056900  0.000000      7.000000
 -0.052562  0.022760  0.000000      5.000000
  0.013141  0.068280  0.000000      7.000000
 -0.065703  0.022760  0.000000      5.000000
  0.019711  0.079660  0.000000      7.000000
 -0.078843  0.022760  0.000000      5.000000
  0.026281  0.091040  0.000000      7.000000
 -0.091984  0.022760  0.000000      5.000000
  0.032851  0.102421  0.000000      7.000000
  0.006570 -0.170701  0.000000      5.000000
 -0.000000  0.068280  0.000000      6.000000
  0.006570  0.079660  0.000000      7.000000
 -0.072273  0.034140  0.000000      5.000000
  0.013141  0.091040  0.000000      7.000000
 -0.085414  0.034140  0.000000      5.000000
  0.019711  0.102421  0.000000      7.000000
  0.013141 -0.159321  0.000000      5.000000
  0.026281  0.113801  0.000000      6.000000
 -0.000000  0.091040  0.000000      6.000000
  0.006570  0.102421  0.000000      7.000000
  0.019711 -0.147941  0.000000      5.000000
  0.013141  0.113801  0.000000      7.000000
  0.006570 -0.147941  0.000000      5.000000
  0.000000  0.113801  0.000000      6.000000
  0.006570  0.125181  0.000000      6.000000

 Subroutine IBZKPT_HF returns following result:

 Found    289 k-points in 1st BZ
 the following    289 k-points will be used (e.g. in the exchange kernel)
 Following reciprocal coordinates:   # in IRBZ
  0.000000  0.000000  0.000000    0.00346021   1 t-inv F
  0.058824  0.000000  0.000000    0.00346021   2 t-inv F
  0.117647 -0.000000  0.000000    0.00346021   3 t-inv F
  0.176471 -0.000000  0.000000    0.00346021   4 t-inv F
  0.235294 -0.000000  0.000000    0.00346021   5 t-inv F
  0.294118 -0.000000  0.000000    0.00346021   6 t-inv F
  0.352941  0.000000  0.000000    0.00346021   7 t-inv F
  0.411765  0.000000  0.000000    0.00346021   8 t-inv F
  0.470588 -0.000000  0.000000    0.00346021   9 t-inv F
  0.058824  0.058824  0.000000    0.00346021  10 t-inv F
  0.117647  0.058824  0.000000    0.00242215  11 t-inv F
 -0.117647  0.176471  0.000000    0.00865052  12 t-inv F
  0.176471  0.058824  0.000000    0.00242215  13 t-inv F
 -0.176471  0.235294  0.000000    0.00865052  14 t-inv F
  0.235294  0.058824  0.000000    0.00242215  15 t-inv F
 -0.235294  0.294118  0.000000    0.00865052  16 t-inv F
  0.294118  0.058824  0.000000    0.00242215  17 t-inv F
 -0.294118  0.352941  0.000000    0.00865052  18 t-inv F
  0.352941  0.058824  0.000000    0.00242215  19 t-inv F
[...]
   0.17647059  0.11764706  0.00000000       0.024
  -0.17647059  0.29411765  0.00000000       0.017
   0.23529412  0.11764706  0.00000000       0.024
  -0.23529412  0.35294118  0.00000000       0.017
   0.29411765  0.11764706  0.00000000       0.024
  -0.29411765  0.41176471  0.00000000       0.017
   0.35294118  0.11764706  0.00000000       0.024
  -0.35294118  0.47058824  0.00000000       0.017
   0.41176471  0.11764706  0.00000000       0.024
  -0.41176471 -0.47058824  0.00000000       0.017
   0.17647059  0.17647059  0.00000000       0.021
   0.23529412  0.17647059  0.00000000       0.024
  -0.23529412  0.41176471  0.00000000       0.017
   0.29411765  0.17647059  0.00000000       0.024
  -0.29411765  0.47058824  0.00000000       0.017
   0.35294118  0.17647059  0.00000000       0.024
  -0.35294118 -0.47058824  0.00000000       0.017
   0.41176471  0.17647059  0.00000000       0.021
   0.23529412  0.23529412  0.00000000       0.021
   0.29411765  0.23529412  0.00000000       0.024
  -0.29411765 -0.47058824  0.00000000       0.017
   0.35294118  0.23529412  0.00000000       0.024
  -0.35294118 -0.41176471  0.00000000       0.017
   0.29411765  0.29411765  0.00000000       0.021
   0.35294118  0.29411765  0.00000000       0.021

 position of ions in fractional coordinates (direct lattice)
   0.33833419  0.66916509  0.25000000
   0.67166632  0.33583190  0.25000000
   0.16374592  0.31999952  0.25000000
   0.32249948  0.16125027  0.25000000
   0.16375429  0.84374918  0.25000000
   0.84624418  0.16125058  0.25000000
   0.68750002  0.84375011  0.25000000
   0.84625161  0.68499936  0.25000000

 position of ions in cartesian coordinates  (Angst):
  -1.48095957  2.60388188  3.75000000
   1.50335774  2.60387913  3.75000000
  -0.69946691  1.25024009  3.75000000
   0.72182969  1.25025122  3.75000000
  -3.04398692  2.60389270  3.75000000
   3.06636356  2.60387022  3.75000000
  -0.69945120  3.95751595  3.75000000
   0.72184331  3.95751813  3.75000000

 k-point   1 :   0.0000 0.0000 0.0000  plane waves:    7497
 k-point   2 :   0.0588 0.0000 0.0000  plane waves:    7497
 k-point   3 :   0.1176-0.0000 0.0000  plane waves:    7517
 k-point   4 :   0.1765-0.0000 0.0000  plane waves:    7511
 k-point   5 :   0.2353-0.0000 0.0000  plane waves:    7499
 k-point   6 :   0.2941-0.0000 0.0000  plane waves:    7518
 k-point   7 :   0.3529 0.0000 0.0000  plane waves:    7528
 k-point   8 :   0.4118 0.0000 0.0000  plane waves:    7520
 k-point   9 :   0.4706-0.0000 0.0000  plane waves:    7522
 k-point  10 :   0.0588 0.0588 0.0000  plane waves:    7505
 k-point  11 :   0.1176 0.0588 0.0000  plane waves:    7499
 k-point  12 :  -0.1176 0.1765 0.0000  plane waves:    7499
 k-point  13 :   0.1765 0.0588 0.0000  plane waves:    7494
 k-point  14 :  -0.1765 0.2353 0.0000  plane waves:    7494
 k-point  15 :   0.2353 0.0588 0.0000  plane waves:    7518
 k-point  16 :  -0.2353 0.2941 0.0000  plane waves:    7518
 k-point  17 :   0.2941 0.0588 0.0000  plane waves:    7517
 k-point  18 :  -0.2941 0.3529 0.0000  plane waves:    7517
 k-point  19 :   0.3529 0.0588 0.0000  plane waves:    7517
 k-point  20 :  -0.3529 0.4118 0.0000  plane waves:    7517
 k-point  21 :   0.4118 0.0588 0.0000  plane waves:    7523
 k-point  22 :  -0.4118 0.4706 0.0000  plane waves:    7523
 k-point  23 :   0.4706 0.0588 0.0000  plane waves:    7540
 k-point  24 :   0.1176 0.1176 0.0000  plane waves:    7493
 k-point  25 :   0.1765 0.1176 0.0000  plane waves:    7514
 k-point  26 :  -0.1765 0.2941 0.0000  plane waves:    7514
 k-point  27 :   0.2353 0.1176 0.0000  plane waves:    7523
 k-point  28 :  -0.2353 0.3529 0.0000  plane waves:    7523
 k-point  29 :   0.2941 0.1176 0.0000  plane waves:    7516
 k-point  30 :  -0.2941 0.4118 0.0000  plane waves:    7516
 k-point  31 :   0.3529 0.1176 0.0000  plane waves:    7532
 k-point  32 :  -0.3529 0.4706 0.0000  plane waves:    7532
 k-point  33 :   0.4118 0.1176 0.0000  plane waves:    7532
 k-point  34 :  -0.4118-0.4706 0.0000  plane waves:    7532
 k-point  35 :   0.1765 0.1765 0.0000  plane waves:    7523
 k-point  36 :   0.2353 0.1765 0.0000  plane waves:    7535
 k-point  37 :  -0.2353 0.4118 0.0000  plane waves:    7535
 k-point  38 :   0.2941 0.1765 0.0000  plane waves:    7517
 k-point  39 :  -0.2941 0.4706 0.0000  plane waves:    7517
 k-point  40 :   0.3529 0.1765 0.0000  plane waves:    7535
 k-point  41 :  -0.3529-0.4706 0.0000  plane waves:    7535
 k-point  42 :   0.4118 0.1765 0.0000  plane waves:    7553
 k-point  43 :   0.2353 0.2353 0.0000  plane waves:    7541
 k-point  44 :   0.2941 0.2353 0.0000  plane waves:    7526
 k-point  45 :  -0.2941-0.4706 0.0000  plane waves:    7526
 k-point  46 :   0.3529 0.2353 0.0000  plane waves:    7544
 k-point  47 :  -0.3529-0.4118 0.0000  plane waves:    7544
 k-point  48 :   0.2941 0.2941 0.0000  plane waves:    7559
 k-point  49 :   0.3529 0.2941 0.0000  plane waves:    7561

 maximum and minimum number of plane-waves per node :      7561     7493

 maximum number of plane-waves:      7561
 maximum index in each direction:
   IXMAX=    9   IYMAX=    9   IZMAX=   25
   IXMIN=   -9   IYMIN=   -9   IZMIN=  -25

 serial   3D FFT for wavefunctions
 parallel 3D FFT for charge:
    minimum data exchange during FFTs selected (reduces bandwidth)

 FFT grid for exact exchange (Hartree Fock)
  NGX = 28; NGY = 28; NGZ = 80

 Radii for the augmentation spheres in the non-local exchange
 for species   1 augmentation radius   0.959 (default was   0.767)
       energy cutoff for augmentation   1800.0
 for species   2 augmentation radius   0.874 (default was   0.699)
       energy cutoff for augmentation   1800.0
 Maximum index for augmentation-charges in exchange          678
  SETUP_FOCK is finished

 Broyden mixing: mesh for mixing (old mesh)
   NGX = 17   NGY = 17   NGZ = 51
  (NGX  = 72   NGY  = 72   NGZ  =216)
  gives a total of  14739 points

 initial charge density was supplied:
 charge density of overlapping atoms calculated
 number of electron      30.0000000 magnetization
 charge density for first step will be calculated from the start-wavefunctions

 Maximum index for augmentation-charges          367 (set IRDMAX)

 initial charge from wavefunction
 First call to EWALD:  gamma=   0.252
 Maximum number of real-space cells 4x 4x 2
 Maximum number of reciprocal cells 2x 2x 5

--------------------------------------- Ionic step        1  -------------------------------------------

--------------------------------------- Iteration      1(   1)  ---------------------------------------

 eigenvalue-minimisations  :     0
 total energy-change (2. order) :-0.2385970E+02  (-0.2835035E+02)
 number of electron      30.0000000 magnetization
 augmentation part        0.4928652 magnetization

 Free energy of the ion-electron system (eV)
  alpha Z        PSCENC =        14.61461864
  Ewald energy   TEWEN  =      2603.47407329
  -Hartree energ DENC   =     -3501.93153101
  -exchange      EXHF   =        59.78931067
  -V(xc)+E(xc)   XCENC  =        73.94764070
  PAW double counting   =      6469.39951256    -6470.71061303
  entropy T*S    EENTRO =        -0.00000426
  eigenvalues    EBANDS =      -285.35948892
  atomic energy  EATOM  =      1012.91678113
  free energy    TOTEN  =       -23.85969598 eV

  energy without entropy =      -23.85969172  energy(sigma->0) =      -23.85969385
  exchange ACFDT corr.  =        -0.00000000  see jH, gK, PRB 81, 115126

[...]

 eigenvalue-minimisations  :     0
 total energy-change (2. order) :-0.5974748E-05  (-0.9409173E-05)
 number of electron      29.9999999 magnetization
 augmentation part        0.4850113 magnetization

[...]

 eigenvalue-minimisations  :     0
 total energy-change (2. order) : 0.1807561E-05  (-0.3352889E-05)
 number of electron      29.9999999 magnetization
 augmentation part        0.4850097 magnetization

[...]

--------------------------------------- Iteration      1(  24)  ---------------------------------------

 eigenvalue-minimisations  :     0
 total energy-change (2. order) : 0.5808433E-06  (-0.2443250E-06)
 number of electron      29.9999999 magnetization
 augmentation part        0.4850066 magnetization

 Free energy of the ion-electron system (eV)
  alpha Z        PSCENC =        14.61461864
  Ewald energy   TEWEN  =      2603.47407329
  -Hartree energ DENC   =     -3496.59597639
  -exchange      EXHF   =        64.34988832
  -V(xc)+E(xc)   XCENC  =        73.82633177
  PAW double counting   =      3177.47112291    -3178.76930387
  entropy T*S    EENTRO =        -0.00000000
  eigenvalues    EBANDS =      -348.23752480
  atomic energy  EATOM  =      1012.91678113
  free energy    TOTEN  =       -76.95000262 eV

  energy without entropy =      -76.95000262  energy(sigma->0) =      -76.95000262
  exchange ACFDT corr.  =        -0.00000000  see jH, gK, PRB 81, 115126

  average scaling for gradient   1.1295

 average (electrostatic) potential at core
  the test charge radii are     0.7672  0.6991
  (the norm of the test charge is              1.0000)
       1 -31.6600       2 -31.6601       3 -53.2643       4 -53.3420       5 -53.4067
       6 -53.4071       7 -53.3420       8 -53.2640

 E-fermi :  -4.2953     XC(G=0):  -2.3634     alpha+bet : -2.3721

 Fermi energy:        -4.2952910527

 k-point     1 :       0.0000    0.0000    0.0000
  band No.  band energies     occupation
      1     -22.3235      2.00000
      2     -18.1172      2.00000
      3     -18.0708      2.00000
      4     -15.4750      2.00000
      5     -15.4643      2.00000
      6     -14.3011      2.00000
      7     -12.9756      2.00000
      8      -9.7530      2.00000
      9      -9.7368      2.00000
     10      -7.4971      2.00000
     11      -7.4728      2.00000
     12      -4.9376      2.00000
     13      -4.9017      2.00000
     14      -4.7472      2.00000
     15      -4.7379      2.00000
     16      -1.4630      0.00000
     17       0.2306      0.00000
     18       0.2513      0.00000
     19       0.9091      0.00000
     20       0.9911      0.00000
     21       2.0083      0.00000
     22       2.3020      0.00000
     23       4.3612      0.00000
     24       4.9931      0.00000
     25       5.6524      0.00000
     26       5.6528      0.00000
     27       6.9472      0.00000
     28       8.2065      0.00000
     29       8.2833      0.00000
     30       8.2871      0.00000
     31       8.3210      0.00000
     32       8.4613      0.00000
     33       8.5206      0.00000
     34       8.5927      0.00000
     35       9.0169      0.00000
     36       9.0324      0.00000
     37       9.1642      0.00000
     38       9.1683      0.00000
     39       9.2643      0.00000
     40       9.3716      0.00000
     41       9.5029      0.00000
     42       9.6619      0.00000
     43       9.7260      0.00000
     44       9.7321      0.00000
     45       9.8856      0.00000
     46      10.0091      0.00000
     47      10.7478      0.00000
     48      11.3190      0.00000

[...]

 k-point    49 :       0.3529    0.2941    0.0000
  band No.  band energies     occupation
      1     -21.5896      2.00000
      2     -19.5943      2.00000
      3     -19.4181      2.00000
      4     -14.8228      2.00000
      5     -14.4979      2.00000
      6     -12.3687      2.00000
      7      -9.9534      2.00000
      8      -9.6562      2.00000
      9      -9.2284      2.00000
     10      -8.5632      2.00000
     11      -8.2937      2.00000
     12      -7.5131      2.00000
     13      -7.2076      2.00000
     14      -6.8766      2.00000
     15      -6.6123      2.00000
     16      -1.2143      0.00000
     17      -0.7015      0.00000
     18       3.3295      0.00000
     19       3.3346      0.00000
     20       3.7652      0.00000
     21       4.0408      0.00000
     22       4.1076      0.00000
     23       4.5027      0.00000
     24       4.6528      0.00000
     25       4.6564      0.00000
     26       5.0920      0.00000
     27       5.1351      0.00000
     28       5.6727      0.00000
     29       5.7317      0.00000
     30       6.5842      0.00000
     31       6.7955      0.00000
     32       7.1179      0.00000
     33       7.3327      0.00000
     34       7.3523      0.00000
     35       7.7690      0.00000
     36       7.9886      0.00000
     37       8.2097      0.00000
     38       9.4275      0.00000
     39      10.0571      0.00000
     40      10.0850      0.00000
     41      10.4392      0.00000
     42      10.5505      0.00000
     43      10.9287      0.00000
     44      11.3346      0.00000
     45      11.4517      0.00000
     46      11.6143      0.00000
     47      11.8200      0.00000
     48      11.9572      0.00000

 soft charge-density along one line, spin component           1
         0         1         2         3         4         5         6         7         8         9
 total charge-density along one line

------------------------ aborting loop because EDIFF is reached ----------------------------------------

 total charge

# of ion       s       p       d       tot
    1        0.763   1.298   0.000   2.060
    2        0.763   1.298   0.000   2.060
    3        0.881   1.725   0.000   2.606
    4        0.881   1.727   0.000   2.608
    5        0.881   1.728   0.000   2.609
    6        0.881   1.728   0.000   2.609
    7        0.881   1.727   0.000   2.608
    8        0.881   1.725   0.000   2.606
tot          6.811  12.956   0.000  19.767

 VOLUME and BASIS-vectors are now :
  energy-cutoff  :      450.00
  volume of cell :      347.08
      direct lattice vectors                 reciprocal lattice vectors
     4.476485000  2.584500000  0.000000000     0.111694778  0.193461018  0.000000000
    -4.476485000  2.584500000  0.000000000    -0.111694778  0.193461018  0.000000000
     0.000000000  0.000000000 15.000000000     0.000000000  0.000000000  0.066666667

  length of vectors
     5.168999730  5.168999730 15.000000000     0.223389545  0.223389545  0.066666667

 FORCES acting on ions:
    Electron-Ion                     Ewald-Force                    Non-Local-Force
   0.673E-01 -.470E-02 0.138E-05   0.194E-02 -.173E-03 -.103E-18   -.209E-01 0.288E-01 0.218E-21
   -.667E-01 0.531E-02 0.298E-05   -.458E-02 0.486E-03 0.182E-18   0.209E-01 -.288E-01 0.199E-22
   0.258E+02 -.445E+02 -.104E-04   -.276E+02 0.478E+02 -.120E-18   0.194E+01 -.337E+01 0.516E-21
   -.259E+02 -.444E+02 0.154E-05   0.276E+02 0.478E+02 0.758E-18   -.195E+01 -.331E+01 -.885E-22
   -.515E+02 -.164E+00 0.168E-04   0.551E+02 -.522E-03 -.197E-18   -.384E+01 -.370E-01 0.450E-21
   0.515E+02 0.163E+00 -.462E-05   -.551E+02 0.308E-03 0.100E-18   0.384E+01 0.371E-01 -.314E-22
   0.259E+02 0.444E+02 0.566E-05   -.276E+02 -.478E+02 -.329E-18   0.195E+01 0.331E+01 -.457E-21
   -.258E+02 0.445E+02 0.104E-04   0.276E+02 -.478E+02 -.272E-18   -.193E+01 0.337E+01 -.117E-21
   0.717E-02 -.168E-02 0.240E-04   -.711E-14 0.000E+00 0.195E-19   0.791E-04 0.185E-03 0.511E-21

 POSITION                                       TOTAL-FORCE (eV/Angst)
     -1.48096      2.60388      3.75000         0.004891     -0.002908     -0.000000
      1.50336      2.60388      3.75000        -0.004671      0.002253     -0.000000
     -0.69947      1.25024      3.75000         0.211431     -0.303995     -0.000000
      0.72183      1.25025      3.75000        -0.196929     -0.319499      0.000000
     -3.04399      2.60389      3.75000        -0.376233      0.020234     -0.000000
      3.06636      2.60387      3.75000         0.376118     -0.020054      0.000000
     -0.69945      3.95752      3.75000         0.196910      0.319700     -0.000000
      0.72184      3.95752      3.75000        -0.211516      0.304270     -0.000000
    total drift:                                0.007248     -0.001492      0.000024

  FREE ENERGIE OF THE ION-ELECTRON SYSTEM (eV)
  free  energy   TOTEN  =       -76.95000262 eV

  energy  without entropy=      -76.95000262  energy(sigma->0) =      -76.95000262

 stress matrix after NEB project (eV)
      0.00000      0.00000      0.00000
      0.00000      0.00000      0.00000
      0.00000      0.00000      0.00000
  FORCES: max atom, RMS     0.376777    0.324069
  FORCE total and by dimension    0.916605    0.376233
  Stress total and by dimension    0.000000    0.000000

[...]

 writing wavefunctions

 total charge

# of ion       s       p       d       tot
    1        0.763   1.298   0.000   2.060
    2        0.763   1.298   0.000   2.060
    3        0.881   1.725   0.000   2.606
    4        0.881   1.727   0.000   2.608
    5        0.881   1.728   0.000   2.609
    6        0.881   1.728   0.000   2.609
    7        0.881   1.727   0.000   2.608
    8        0.881   1.725   0.000   2.606
tot          6.811  12.956   0.000  19.767