 vasp.6.3.2 27Jun22 (build Dec 22 2022 13:13:19) complex

 executed on             LinuxIFC date 2024.03.04  17:40:38

 INCAR:
   SYSTEM = SC
   ISTART = 0
   ICHARG = 2
   PREC = Accurate
   ENCUT = 450
   LCHARG = .TRUE.
   LWAVE = .TRUE.
   ALGO = Normal
   NELM = 64
   EDIFF = 1E-6
   EDIFFG = -1E-3
   SIGMA = 0.1
   ISMEAR = 0
   SYMPREC = 1E-6
   IBRION = -1
   GGA = PE
   IVDW = 12

 POTCAR:    PAW_PBE B 06Sep2000
 POTCAR:    PAW_PBE C 08Apr2002
 POTCAR:    PAW_PBE B 06Sep2000
   VRHFIN =B: s2p1

   TITEL  = PAW_PBE B 06Sep2000
   POMASS =   10.811; ZVAL   =    3.000    mass and valenz
   ENMAX  =  318.614; ENMIN  =  238.960 eV

   TITEL  = PAW_PBE C 08Apr2002
   POMASS =   12.011; ZVAL   =    4.000    mass and valenz
   ENMAX  =  400.000; ENMIN  =  300.000 eV

  PAW_PBE B 06Sep2000                   :
  PAW_PBE C 08Apr2002                   :

 POSCAR: Graphene-BC3 Hollow with lattice paramet
  positions in direct lattice
  velocities in cartesian coordinates
 exchange correlation table for  LEXCH =        8
   RHO(1)=    0.500       N(1)  =     2000
   RHO(2)=  100.500       N(2)  =     4000

 VTST: version 4.2, (08/11/21)

 CHAIN: initializing optimizer

 OPT: Using VASP Dynamics algorithm
 CHAIN: Read ICHAIN            0

 POSCAR: Graphene-BC3 Hollow with lattice paramet
  positions in direct lattice
  velocities in cartesian coordinates

 ion  position               nearest neighbor table
   1  0.338  0.669  0.113-   7 1.52   5 1.52   3 1.52
   2  0.672  0.336  0.113-   8 1.52   6 1.52   4 1.52
   3  0.164  0.322  0.113-   4 1.39   6 1.39   1 1.52
   4  0.324  0.162  0.113-   5 1.39   3 1.39   2 1.52
   5  0.164  0.843  0.113-   4 1.39   8 1.39   1 1.52
   6  0.845  0.162  0.113-   7 1.39   3 1.39   2 1.52
   7  0.686  0.843  0.113-   6 1.39   8 1.39   1 1.52
   8  0.845  0.683  0.113-   7 1.39   5 1.39   2 1.52
   9  0.333  0.167  0.338-  10 1.46  12 1.46  14 1.46
  10  0.500  0.000  0.338-   9 1.46  13 1.46  11 1.46
  11  0.333  0.667  0.338-  16 1.46  12 1.46  10 1.46
  12  0.500  0.500  0.338-   9 1.46  15 1.46  11 1.46
  13  0.833  0.167  0.338-  16 1.46  10 1.46  14 1.46
  14  0.000  0.000  0.338-   9 1.46  13 1.46  15 1.46
  15  0.833  0.667  0.338-  16 1.46  12 1.46  14 1.46
  16  0.000  0.500  0.338-  15 1.46  13 1.46  11 1.46

  LATTYP: Found a hexagonal cell.
 ALAT       =     5.0440000000
 C/A-ratio  =     2.9738302934

  Lattice vectors:

 A1 = (   4.3682321367,   2.5220000000,   0.0000000000)
 A2 = (  -4.3682321367,   2.5220000000,   0.0000000000)
 A3 = (   0.0000000000,   0.0000000000,  15.0000000000)

Analysis of symmetry for initial positions (statically):
 Subroutine PRICEL returns:
 Original cell was already a primitive cell.

 Routine SETGRP: Setting up the symmetry group for a
 hexagonal supercell.

 Subroutine GETGRP returns: Found  1 space group operations
 (whereof  1 operations were pure point group operations)
 out of a pool of 24 trial point group operations.

The static configuration has the point symmetry C_1 .

Analysis of symmetry for dynamics (positions and initial velocities):
 Subroutine PRICEL returns:
 Original cell was already a primitive cell.

 Routine SETGRP: Setting up the symmetry group for a
 hexagonal supercell.

 Subroutine GETGRP returns: Found  1 space group operations
 (whereof  1 operations were pure point group operations)
 out of a pool of 24 trial point group operations.

The dynamic configuration has the point symmetry C_1 .

 Subroutine INISYM returns: Found  1 space group operations
 (whereof  1 operations are pure point group operations),
 and found     1 'primitive' translations

                                     Primitive cell

  volume of cell :     330.5004

  direct lattice vectors                    reciprocal lattice vectors
     4.368232137  2.522000000  0.000000000     0.114462781  0.198255353  0.000000000
    -4.368232137  2.522000000  0.000000000    -0.114462781  0.198255353  0.000000000
     0.000000000  0.000000000 15.000000000     0.000000000  0.000000000  0.066666667

  length of vectors
     5.044000000  5.044000000 15.000000000     0.228925563  0.228925563  0.066666667

  position of ions in fractional coordinates (direct lattice)
     0.338203334  0.669098661  0.113381622
     0.671538623  0.335766770  0.113066104
     0.164492162  0.321676120  0.113073872
     0.324038669  0.162015918  0.113080124
     0.164492146  0.842809624  0.113074202
     0.845282693  0.162014532  0.113070458
     0.685620398  0.842806916  0.113065505
     0.845283256  0.683261954  0.113070868
     0.333481117  0.166743137  0.338140385
     0.500169288  0.000150954  0.338117411
     0.333461746  0.666733449  0.337831925
     0.500169285  0.500023737  0.338117409
     0.833456475  0.166744471  0.338135786
     0.000131755  0.000068577  0.338120511
     0.833456492  0.666717201  0.338135817
     0.000047897  0.500026647  0.338118001

  ion indices of the primitive-cell ions
   primitive index   ion index
                 1           1
                 2           2
                 3           3
                 4           4
                 5           5
                 6           6
                 7           7
                 8           8
                 9           9
                10          10
                11          11
                12          12
                13          13
                14          14
                15          15
                16          16

 KPOINTS: k-points

Automatic generation of k-mesh.
 Grid dimensions read from file:
 generate k-points for:   17   17    1

 Generating k-lattice:

  Cartesian coordinates                     Fractional coordinates (reciprocal lattice)
     0.006733105  0.011662080  0.000000000     0.058823529  0.000000000  0.000000000
    -0.006733105  0.011662080  0.000000000     0.000000000  0.058823529  0.000000000
     0.000000000  0.000000000  0.066666667     0.000000000  0.000000000  1.000000000

  Length of vectors
     0.013466210  0.013466210  0.066666667

  Shift w.r.t. Gamma in fractional coordinates (k-lattice)
     0.000000000  0.000000000  0.000000000

 Subroutine IBZKPT returns following result:

 Found    145 irreducible k-points:

 Following reciprocal coordinates:
            Coordinates               Weight
  0.000000  0.000000  0.000000      1.000000
  0.058824 -0.000000  0.000000      2.000000
 -0.000000  0.058824  0.000000      2.000000
 -0.058824  0.058824  0.000000      2.000000
  0.117647 -0.000000  0.000000      2.000000
 -0.000000  0.117647  0.000000      2.000000
 -0.117647  0.117647  0.000000      2.000000
  0.176471 -0.000000  0.000000      2.000000
 -0.000000  0.176471  0.000000      2.000000
 -0.176471  0.176471  0.000000      2.000000
  0.235294 -0.000000  0.000000      2.000000
 -0.000000  0.235294  0.000000      2.000000
 -0.235294  0.235294  0.000000      2.000000
  0.294118 -0.000000  0.000000      2.000000
 -0.000000  0.294118  0.000000      2.000000
 -0.294118  0.294118  0.000000      2.000000
  0.352941  0.000000  0.000000      2.000000
  0.000000  0.352941  0.000000      2.000000
 -0.352941  0.352941  0.000000      2.000000
  0.411765 -0.000000  0.000000      2.000000
 -0.000000  0.411765  0.000000      2.000000
 -0.411765  0.411765  0.000000      2.000000
  0.470588 -0.000000  0.000000      2.000000
 -0.000000  0.470588  0.000000      2.000000
 -0.470588  0.470588  0.000000      2.000000
  0.058824  0.058824  0.000000      2.000000
 -0.058824  0.117647  0.000000      2.000000
 -0.117647  0.058824  0.000000      2.000000
  0.117647  0.058824  0.000000      2.000000
 -0.058824  0.176471  0.000000      2.000000
 -0.176471  0.117647  0.000000      2.000000
 -0.117647  0.176471  0.000000      2.000000
  0.058824  0.117647  0.000000      2.000000
  0.176471 -0.058824  0.000000      2.000000
  0.176471  0.058824  0.000000      2.000000
 -0.058824  0.235294  0.000000      2.000000
 -0.235294  0.176471  0.000000      2.000000
 -0.176471  0.235294  0.000000      2.000000
  0.058824  0.176471  0.000000      2.000000
  0.235294 -0.058824  0.000000      2.000000
  0.235294  0.058824  0.000000      2.000000
 -0.058824  0.294118  0.000000      2.000000
 -0.294118  0.235294  0.000000      2.000000
 -0.235294  0.294118  0.000000      2.000000
  0.058824  0.235294  0.000000      2.000000
  0.294118 -0.058824  0.000000      2.000000
  0.294118  0.058824  0.000000      2.000000
 -0.058824  0.352941  0.000000      2.000000
 -0.352941  0.294118  0.000000      2.000000
 -0.294118  0.352941  0.000000      2.000000
  0.058824  0.294118  0.000000      2.000000
  0.352941 -0.058824  0.000000      2.000000
  0.352941  0.058824  0.000000      2.000000
 -0.058824  0.411765  0.000000      2.000000
 -0.411765  0.352941  0.000000      2.000000
 -0.352941  0.411765  0.000000      2.000000
  0.058824  0.352941  0.000000      2.000000
  0.411765 -0.058824  0.000000      2.000000
  0.411765  0.058824  0.000000      2.000000
 -0.058824  0.470588  0.000000      2.000000
[...]
 -0.294118 -0.470588  0.000000      2.000000
  0.235294  0.294118  0.000000      2.000000
 -0.470588 -0.235294  0.000000      2.000000
  0.352941  0.235294  0.000000      2.000000
 -0.235294 -0.411765  0.000000      2.000000
  0.411765  0.352941  0.000000      2.000000
 -0.352941 -0.411765  0.000000      2.000000
  0.235294  0.352941  0.000000      2.000000
 -0.411765 -0.235294  0.000000      2.000000
  0.294118  0.294118  0.000000      2.000000
 -0.294118 -0.411765  0.000000      2.000000
  0.411765  0.294118  0.000000      2.000000
  0.352941  0.294118  0.000000      2.000000
 -0.294118 -0.352941  0.000000      2.000000
  0.352941  0.352941  0.000000      2.000000

 Following cartesian coordinates:
            Coordinates               Weight
  0.000000  0.000000  0.000000      1.000000
  0.006733  0.011662  0.000000      2.000000
 -0.006733  0.011662  0.000000      2.000000
 -0.013466 -0.000000  0.000000      2.000000
  0.013466  0.023324  0.000000      2.000000
 -0.013466  0.023324  0.000000      2.000000
 -0.026932 -0.000000  0.000000      2.000000
  0.020199  0.034986  0.000000      2.000000
 -0.020199  0.034986  0.000000      2.000000
 -0.040399 -0.000000  0.000000      2.000000
  0.026932  0.046648  0.000000      2.000000
 -0.026932  0.046648  0.000000      2.000000
 -0.053865 -0.000000  0.000000      2.000000
  0.033666  0.058310  0.000000      2.000000
 -0.033666  0.058310  0.000000      2.000000
 -0.067331  0.000000  0.000000      2.000000
  0.040399  0.069972  0.000000      2.000000
 -0.040399  0.069972  0.000000      2.000000
 -0.080797  0.000000  0.000000      2.000000
  0.047132  0.081635  0.000000      2.000000
 -0.047132  0.081635  0.000000      2.000000
 -0.094263 -0.000000  0.000000      2.000000
  0.053865  0.093297  0.000000      2.000000
 -0.053865  0.093297  0.000000      2.000000
 -0.107730 -0.000000  0.000000      2.000000
 -0.000000  0.023324  0.000000      2.000000
 -0.020199  0.011662  0.000000      2.000000
 -0.020199 -0.011662  0.000000      2.000000
  0.006733  0.034986  0.000000      2.000000
 -0.026932  0.023324  0.000000      2.000000
 -0.033666 -0.011662  0.000000      2.000000
 -0.033666  0.011662  0.000000      2.000000
[...]
 k-point  38 :  -0.1765 0.2353 0.0000  plane waves:    7177
 k-point  39 :   0.0588 0.1765 0.0000  plane waves:    7177
 k-point  40 :   0.2353-0.0588 0.0000  plane waves:    7177
 k-point  41 :   0.2353 0.0588 0.0000  plane waves:    7168
 k-point  42 :  -0.0588 0.2941 0.0000  plane waves:    7168
 k-point  43 :  -0.2941 0.2353 0.0000  plane waves:    7168
 k-point  44 :  -0.2353 0.2941 0.0000  plane waves:    7168
 k-point  45 :   0.0588 0.2353 0.0000  plane waves:    7168
 k-point  46 :   0.2941-0.0588 0.0000  plane waves:    7168
 k-point  47 :   0.2941 0.0588 0.0000  plane waves:    7162
 k-point  48 :  -0.0588 0.3529 0.0000  plane waves:    7162
 k-point  49 :  -0.3529 0.2941 0.0000  plane waves:    7162
 k-point  50 :  -0.2941 0.3529 0.0000  plane waves:    7162
 k-point  51 :   0.0588 0.2941 0.0000  plane waves:    7162
 k-point  52 :   0.3529-0.0588 0.0000  plane waves:    7162
 k-point  53 :   0.3529 0.0588 0.0000  plane waves:    7157
 k-point  54 :  -0.0588 0.4118 0.0000  plane waves:    7157
 k-point  55 :  -0.4118 0.3529 0.0000  plane waves:    7157
 k-point  56 :  -0.3529 0.4118 0.0000  plane waves:    7157
 k-point  57 :   0.0588 0.3529 0.0000  plane waves:    7157
 k-point  58 :   0.4118-0.0588 0.0000  plane waves:    7157
 k-point  59 :   0.4118 0.0588 0.0000  plane waves:    7174
 k-point  60 :  -0.0588 0.4706 0.0000  plane waves:    7174
[...]
 k-point 131 :  -0.2941-0.4706 0.0000  plane waves:    7139
 k-point 132 :   0.2353 0.2941 0.0000  plane waves:    7139
 k-point 133 :  -0.4706-0.2353 0.0000  plane waves:    7139
 k-point 134 :   0.3529 0.2353 0.0000  plane waves:    7142
 k-point 135 :  -0.2353-0.4118 0.0000  plane waves:    7142
 k-point 136 :   0.4118 0.3529 0.0000  plane waves:    7142
 k-point 137 :  -0.3529-0.4118 0.0000  plane waves:    7142
 k-point 138 :   0.2353 0.3529 0.0000  plane waves:    7142
 k-point 139 :  -0.4118-0.2353 0.0000  plane waves:    7142
 k-point 140 :   0.2941 0.2941 0.0000  plane waves:    7129
 k-point 141 :  -0.2941-0.4118 0.0000  plane waves:    7129
 k-point 142 :   0.4118 0.2941 0.0000  plane waves:    7129
 k-point 143 :   0.3529 0.2941 0.0000  plane waves:    7129
 k-point 144 :  -0.2941-0.3529 0.0000  plane waves:    7129
 k-point 145 :   0.3529 0.3529 0.0000  plane waves:    7129

 maximum and minimum number of plane-waves per node :      7186     7129

 maximum number of plane-waves:      7186
 maximum index in each direction:
   IXMAX=    9   IYMAX=    9   IZMAX=   25
   IXMIN=   -9   IYMIN=   -9   IZMIN=  -25

 serial   3D FFT for wavefunctions
 parallel 3D FFT for charge:
    minimum data exchange during FFTs selected (reduces bandwidth)

 Broyden mixing: mesh for mixing (old mesh)
   NGX = 17   NGY = 17   NGZ = 51
  (NGX  = 72   NGY  = 72   NGZ  =216)
  gives a total of  14739 points

 initial charge density was supplied:
 charge density of overlapping atoms calculated
 number of electron      62.0000000 magnetization
 keeping initial charge density in first step

 Maximum index for augmentation-charges          376 (set IRDMAX)

 First call to EWALD:  gamma=   0.256
 Maximum number of real-space cells 4x 4x 2
 Maximum number of reciprocal cells 2x 2x 5

--------------------------------------- Iteration      1(   1)  ---------------------------------------

 eigenvalue-minimisations  : 13920
 total energy-change (2. order) : 0.2534938E+03  (-0.2850511E+04)
 number of electron      62.0000000 magnetization
 augmentation part       62.0000000 magnetization

 Free energy of the ion-electron system (eV)
  alpha Z        PSCENC =        62.53960761
  Ewald energy   TEWEN  =      5474.65236662
  -Hartree energ DENC   =     -7293.31970362
  -exchange      EXHF   =         0.00000000
  -V(xc)+E(xc)   XCENC  =       197.12920419
  PAW double counting   =      1606.30838033    -1612.56942176
  entropy T*S    EENTRO =        -0.02109045
  eigenvalues    EBANDS =      -383.58448873
  atomic energy  EATOM  =      2202.35892741
  Solvation  Ediel_sol  =         0.00000000
  free energy    TOTEN  =       253.49378160 eV

  energy without entropy =      253.51487205  energy(sigma->0) =      253.50432682

[...]

 eigenvalue-minimisations  : 21456
 total energy-change (2. order) :-0.3895815E+03  (-0.3891123E+03)
 number of electron      62.0000000 magnetization
 augmentation part       62.0000000 magnetization

[...]

 Broyden mixing:
  rms(total) = 0.18297E+01    rms(broyden)= 0.18293E+01
  rms(prec ) = 0.20765E+01
  weight for this iteration     100.00

[...]

 eigenvalues of (default mixing * dielectric matrix)
  average eigenvalue GAMMA=   2.0642
  2.0642

[...]

 eigenvalue-minimisations  : 21840
 total energy-change (2. order) : 0.9377276E-02  (-0.1652679E-02)
 number of electron      62.0000005 magnetization
 augmentation part        1.2541020 magnetization

[...]

 Broyden mixing:
  rms(total) = 0.10738E-04    rms(broyden)= 0.10737E-04
  rms(prec ) = 0.23497E-04
  weight for this iteration     100.00

 eigenvalues of (default mixing * dielectric matrix)
  average eigenvalue GAMMA=   2.3945
  8.4295  4.8689  3.1467  2.7663  2.4064  2.0595  1.6694  1.6694  1.2398  0.9684
  0.9684  1.1456  1.1456  1.0393

[...]

--------------------------------------- Iteration      1(  20)  ---------------------------------------

 eigenvalue-minimisations  : 17568
 total energy-change (2. order) :-0.6553237E-06  (-0.3627005E-08)
 number of electron      62.0000005 magnetization
 augmentation part        1.2539187 magnetization

 Free energy of the ion-electron system (eV)
  alpha Z        PSCENC =        62.53960761
  Ewald energy   TEWEN  =      5474.65236662
  -Hartree energ DENC   =     -7524.43242709
  -exchange      EXHF   =         0.00000000
  -V(xc)+E(xc)   XCENC  =       206.35056115
  PAW double counting   =      6299.14596433    -6307.15235610
  entropy T*S    EENTRO =        -0.00058854
  eigenvalues    EBANDS =      -553.85878877
  atomic energy  EATOM  =      2202.35892741
  Solvation  Ediel_sol  =         0.00000000
  free energy    TOTEN  =      -140.39673337 eV

  energy without entropy =     -140.39614484  energy(sigma->0) =     -140.39643911

 average (electrostatic) potential at core
  the test charge radii are     0.7672  0.6991
  (the norm of the test charge is              1.0000)
       1 -31.9214       2 -31.9426       3 -54.6128       4 -54.6184       5 -54.6128
       6 -54.6183       7 -54.6125       8 -54.6183       9 -56.4254      10 -56.4303
      11 -56.4409      12 -56.4303      13 -56.4258      14 -56.4369      15 -56.4258
      16 -56.4300

 E-fermi :  -1.0501     XC(G=0):  -5.0849     alpha+bet : -4.9171

 Fermi energy:        -1.0501058851

 k-point     1 :       0.0000    0.0000    0.0000
  band No.  band energies     occupation
      1     -19.8539      2.00000
      2     -18.0196      2.00000
      3     -14.9092      2.00000
      4     -14.9092      2.00000
      5     -14.9077      2.00000
      6     -13.8553      2.00000
      7     -13.8549      2.00000
      8     -13.6838      2.00000
      9     -13.6656      2.00000
     10     -13.6653      2.00000
     11     -11.6803      2.00000
     12     -11.6803      2.00000
     13     -10.6457      2.00000
     14      -9.0719      2.00000
     15      -8.1917      2.00000
     16      -7.0920      2.00000
     17      -7.0920      2.00000
     18      -7.0916      2.00000
     19      -6.6004      2.00000
     20      -6.2586      2.00000
     21      -4.0844      2.00000
     22      -4.0843      2.00000
     23      -3.9221      2.00000
     24      -3.9220      2.00000
     25      -3.1524      2.00000
     26      -3.1495      2.00000
     27      -3.1241      2.00000
     28      -2.2785      2.00000
     29      -2.2735      2.00000
     30      -1.3691      1.99999
     31      -1.3691      1.99999
     32       0.0532      0.00000
     33       0.8012      0.00000
     34       0.8051      0.00000
     35       0.9969      0.00000
     36       2.1404      0.00000
     37       2.1425      0.00000
     38       2.8625      0.00000
     39       2.8802      0.00000
     40       3.6776      0.00000
     41       4.7198      0.00000
     42       5.8469      0.00000
     43       5.8572      0.00000
     44       5.8575      0.00000
     45       7.0222      0.00000
     46       7.0224      0.00000
     47       7.1416      0.00000
     48       7.5077      0.00000

[...]

 k-point   145 :       0.3529    0.3529    0.0000
  band No.  band energies     occupation
      1     -18.0875      2.00000
      2     -18.0864      2.00000
      3     -17.7630      2.00000
      4     -17.2825      2.00000
      5     -15.4082      2.00000
      6     -15.2364      2.00000
      7     -13.4822      2.00000
      8     -13.0640      2.00000
      9     -10.9129      2.00000
     10     -10.8500      2.00000
     11     -10.5310      2.00000
     12      -8.9593      2.00000
     13      -8.8857      2.00000
     14      -8.3973      2.00000
     15      -8.3955      2.00000
     16      -7.3766      2.00000
     17      -6.9193      2.00000
     18      -6.9182      2.00000
     19      -6.3461      2.00000
     20      -6.2042      2.00000
     21      -6.0726      2.00000
     22      -6.0565      2.00000
     23      -5.7941      2.00000
     24      -5.6699      2.00000
     25      -5.1032      2.00000
     26      -4.9202      2.00000
     27      -4.1456      2.00000
     28      -4.1214      2.00000
     29      -3.8676      2.00000
     30      -3.8313      2.00000
     31      -1.1703      1.91079
     32      -0.6405      0.00000
     33       0.7350      0.00000
     34       1.2328      0.00000
     35       4.6893      0.00000
     36       5.2632      0.00000
     37       5.2718      0.00000
     38       5.2932      0.00000
     39       5.3037      0.00000
     40       5.7236      0.00000
     41       5.8923      0.00000
     42       5.9198      0.00000
     43       6.3449      0.00000
     44       6.7497      0.00000
     45       7.0702      0.00000
     46       7.0814      0.00000
     47       7.3283      0.00000
     48       7.3994      0.00000

 soft charge-density along one line, spin component           1
         0         1         2         3         4         5         6         7         8         9
 total charge-density along one line

------------------------ aborting loop because EDIFF is reached ----------------------------------------

         DFTD3 V3.0 Rev 1
 IVDW         = 12
 DF pbe
 parameters
 VDW_S6       =    1.0000
 VDW_S8       =    0.7875
 VDW_A1       =    0.4289
 VDW_A2       =    4.4407
 k1-k3        =   16.0000    1.3333   -4.0000
 VDW_RADIUS   =   50.2022 A
 VDW_CNRADIUS =   21.1671 A
 Edisp (eV)   -1.89722

 E6    (eV) :    -1.3195
 E8    (eV) :    -0.5777
 % E8        : 30.45

  FORCE on cell =-STRESS in cart. coord.  units (eV):
  Direction    XX          YY          ZZ          XY          YZ          ZX
  Alpha Z    62.53961    62.53961    62.53961
  Ewald    7447.82282  7447.80034 -9420.97517    -0.01955     0.02735     0.01642
  Hartree  7422.22227  7422.21101 -7320.00063    -0.00967     0.01368     0.00817
  E(xc)    -226.48044  -226.48055  -234.33176    -0.00010     0.00025     0.00015
  Local  -15564.66262-15564.62928 15959.46745     0.02896    -0.04053    -0.02426
  n-local   -49.96590   -49.96600   -36.23438    -0.00009    -0.00040    -0.00024
  augment    -4.85892    -4.85870    -4.63138     0.00006     0.00003     0.00002
  Kinetic   914.19806   914.19534   995.00665    -0.00239     0.00078     0.00041
  Fock        0.00000     0.00000     0.00000     0.00000     0.00000     0.00000
  vdW        -1.11855    -1.11860    -1.34847    -0.00005     0.00006     0.00003
  Total      -0.30366    -0.30684    -0.50809    -0.00284     0.00121     0.00070
  in kB      -1.47208    -1.48747    -2.46307    -0.01375     0.00588     0.00341

 VOLUME and BASIS-vectors are now :
  energy-cutoff  :      450.00
  volume of cell :      330.50
      direct lattice vectors                 reciprocal lattice vectors
     4.368232137  2.522000000  0.000000000     0.114462781  0.198255353  0.000000000
    -4.368232137  2.522000000  0.000000000    -0.114462781  0.198255353  0.000000000
     0.000000000  0.000000000 15.000000000     0.000000000  0.000000000  0.066666667

  length of vectors
     5.044000000  5.044000000 15.000000000     0.228925563  0.228925563  0.066666667

 FORCES acting on ions
    electron-ion (+dipol)            ewald-force                    non-local-force                 convergence-correction
   0.712E-03 0.161E-02 0.216E+03   -.649E-03 -.155E-02 -.216E+03   -.593E-04 -.169E-03 0.726E-01   0.243E-08 -.244E-06 0.113E-03
   0.170E-02 0.355E-02 0.217E+03   -.134E-02 -.308E-02 -.217E+03   -.185E-03 -.493E-03 -.306E-01   -.258E-06 0.328E-06 0.115E-03
   0.250E+02 -.432E+02 0.289E+03   -.271E+02 0.469E+02 -.289E+03   0.213E+01 -.368E+01 0.653E-02   -.215E-05 0.397E-05 0.154E-03
   -.250E+02 -.433E+02 0.289E+03   0.271E+02 0.469E+02 -.289E+03   -.211E+01 -.365E+01 -.273E-02   -.375E-06 -.314E-06 0.155E-03
   -.499E+02 0.443E-02 0.289E+03   0.541E+02 -.431E-02 -.289E+03   -.425E+01 -.200E-03 0.654E-02   0.413E-05 -.568E-06 0.154E-03
   0.499E+02 -.333E-02 0.289E+03   -.541E+02 0.292E-02 -.289E+03   0.422E+01 0.417E-03 -.159E-02   0.346E-06 0.424E-06 0.155E-03
   0.249E+02 0.432E+02 0.289E+03   -.271E+02 -.469E+02 -.289E+03   0.213E+01 0.368E+01 0.634E-02   -.147E-05 -.397E-05 0.154E-03
   -.250E+02 0.433E+02 0.289E+03   0.271E+02 -.469E+02 -.289E+03   -.211E+01 0.365E+01 -.160E-02   0.111E-06 0.249E-06 0.155E-03
   -.454E+00 -.787E+00 -.272E+03   0.448E+00 0.777E+00 0.272E+03   0.629E-02 0.109E-01 0.800E-01   0.818E-05 0.144E-04 0.129E-03
   -.102E+00 0.113E+00 -.271E+03   0.917E-01 -.975E-01 0.271E+03   0.920E-02 -.137E-01 0.379E-01   -.171E-04 0.289E-04 0.130E-03
   -.903E-02 -.157E-01 -.269E+03   0.847E-02 0.148E-01 0.269E+03   0.375E-03 0.663E-03 0.412E-01   -.589E-07 -.379E-06 0.130E-03
   0.149E+00 -.314E-01 -.271E+03   -.130E+00 0.305E-01 0.271E+03   -.165E-01 0.110E-02 0.379E-01   0.334E-04 -.704E-06 0.130E-03
   0.907E+00 0.166E-01 -.272E+03   -.894E+00 -.163E-01 0.272E+03   -.133E-01 -.470E-03 0.785E-01   -.167E-04 0.364E-06 0.129E-03
   0.133E-01 0.230E-01 -.273E+03   -.130E-01 -.226E-01 0.273E+03   -.106E-03 -.199E-03 0.111E+00   0.656E-07 0.680E-06 0.129E-03
   -.439E+00 0.794E+00 -.272E+03   0.433E+00 -.783E+00 0.272E+03   0.622E-02 -.117E-01 0.785E-01   0.858E-05 -.144E-04 0.129E-03
   -.673E-01 -.116E+00 -.271E+03   0.586E-01 0.101E+00 0.271E+03   0.788E-02 0.136E-01 0.379E-01   -.163E-04 -.289E-04 0.130E-03
   0.204E-04 0.360E-04 -.561E+00   0.181E-13 0.243E-13 -.171E-12   -.135E-03 -.278E-03 0.558E+00   0.335E-06 -.137E-06 0.219E-02

 POSITION                                       TOTAL-FORCE (eV/Angst)
     -1.44543      2.54042      1.70072         0.000013     -0.000097      0.007610
      1.46673      2.54042      1.69599         0.000178     -0.000013      0.004209
     -0.68662      1.22612      1.69611         0.004034     -0.007207     -0.002515
      0.70775      1.22583      1.69620        -0.004559     -0.007680      0.000246
     -2.96305      2.54042      1.69611        -0.008197     -0.000067     -0.002513
      2.98467      2.54040      1.69606         0.008712      0.000033      0.000256
     -0.68663      3.85469      1.69598         0.004055      0.007044     -0.002513
      0.70775      3.85499      1.69606        -0.004488      0.007536      0.000247
      0.72835      1.26157      5.07211         0.000091      0.000212      0.000307
      2.18420      1.26181      5.07176        -0.000824      0.001949     -0.000617
     -1.45581      2.52249      5.06748        -0.000179     -0.000252     -0.003298
      0.00064      2.52249      5.07176         0.002146      0.000239     -0.000615
      2.91235      2.52251      5.07204        -0.000489     -0.000183      0.000251
      0.00028      0.00051      5.07181         0.000180      0.000265     -0.000681
      0.72836      3.78344      5.07204         0.000043     -0.000495      0.000246
     -2.18402      1.26119      5.07177        -0.000716     -0.001283     -0.000621
    total drift:                               -0.000115     -0.000242     -0.000261

  FREE ENERGIE OF THE ION-ELECTRON SYSTEM (eV)
  free  energy   TOTEN  =      -142.29395523 eV

  energy  without entropy=     -142.29336669  energy(sigma->0) =     -142.29366096

 stress matrix after NEB project (eV)
     -0.30366     -0.00284      0.00070
     -0.00284     -0.30684      0.00121
      0.00070      0.00121     -0.50809
  FORCES: max atom, RMS     0.008934    0.005883
  FORCE total and by dimension    0.023530    0.008712
  Stress total and by dimension    0.666734    0.508087
 writing wavefunctions