 vasp.6.4.2 20Jul23 (build Aug 23 2023 19:13:21) complex

 executed on             LinuxIFC date 2024.05.02  18:11:42

 INCAR:
   SYSTEM = SC
   ISTART = 0
   ICHARG = 2
   PREC = Accurate
   ENCUT = 450
   LCHARG = .TRUE.
   LWAVE = .TRUE.
   ALGO = Normal
   NELM = 64
   EDIFF = 1E-6
   EDIFFG = -1E-3
   SIGMA = 0.1
   ISMEAR = 0
   IBRION = -1
   GGA = PE
   IVDW = 12

 POTCAR:    PAW_PBE C 08Apr2002
 POTCAR:    PAW_PBE C 08Apr2002
   VRHFIN =C: s2p2

   TITEL  = PAW_PBE C 08Apr2002
   POMASS =   12.011; ZVAL   =    4.000    mass and valenz
   ENMAX  =  400.000; ENMIN  =  300.000 eV

  PAW_PBE C 08Apr2002                   :

 POSCAR: Graphene-BC3 Hollow with lattice paramet
  positions in direct lattice
 exchange correlation table for  LEXCH =        8
   RHO(1)=    0.500       N(1)  =     2000
   RHO(2)=  100.500       N(2)  =     4000

 VTST: version 4.1, (05/19/21)

 CHAIN: initializing optimizer

 OPT: Using VASP Dynamics algorithm
 CHAIN: Read ICHAIN            0

 POSCAR: Graphene-BC3 Hollow with lattice paramet
  positions in direct lattice

 ion  position               nearest neighbor table
   1  0.333  0.167  0.338-   2 1.46   4 1.46   6 1.46
   2  0.500  0.000  0.338-   1 1.46   5 1.46   3 1.46
   3  0.333  0.667  0.338-   8 1.46   4 1.46   2 1.46
   4  0.500  0.500  0.338-   1 1.46   7 1.46   3 1.46
   5  0.833  0.167  0.338-   8 1.46   2 1.46   6 1.46
   6  0.000  0.000  0.338-   1 1.46   5 1.46   7 1.46
   7  0.833  0.667  0.338-   8 1.46   4 1.46   6 1.46
   8  0.000  0.500  0.338-   7 1.46   5 1.46   3 1.46

  LATTYP: Found a hexagonal cell.
 ALAT       =     5.0440000000
 C/A-ratio  =     2.9738302934

  Lattice vectors:

 A1 = (   4.3682321367,   2.5220000000,   0.0000000000)
 A2 = (  -4.3682321367,   2.5220000000,   0.0000000000)
 A3 = (   0.0000000000,   0.0000000000,  15.0000000000)

Analysis of symmetry for initial positions (statically):
 Subroutine PRICEL returns:
 Original cell was already a primitive cell.

 Routine SETGRP: Setting up the symmetry group for a
 hexagonal supercell.

 Subroutine GETGRP returns: Found  6 space group operations
 (whereof  2 operations were pure point group operations)
 out of a pool of 24 trial point group operations.

The static configuration has the point symmetry C_1h.
 The point group associated with its full space group is C_3v.

Analysis of symmetry for dynamics (positions and initial velocities):
 Subroutine PRICEL returns:
 Original cell was already a primitive cell.

 Routine SETGRP: Setting up the symmetry group for a
 hexagonal supercell.

 Subroutine GETGRP returns: Found  6 space group operations
 (whereof  2 operations were pure point group operations)
 out of a pool of 24 trial point group operations.

The dynamic configuration has the point symmetry C_1h.
 The point group associated with its full space group is C_3v.

 Subroutine INISYM returns: Found  6 space group operations
 (whereof  2 operations are pure point group operations),
 and found     1 'primitive' translations

                                     Primitive cell

  volume of cell :     330.5004

  direct lattice vectors                    reciprocal lattice vectors
     4.368232137  2.522000000  0.000000000     0.114462781  0.198255353  0.000000000
    -4.368232137  2.522000000  0.000000000    -0.114462781  0.198255353  0.000000000
     0.000000000  0.000000000 15.000000000     0.000000000  0.000000000  0.066666667

  length of vectors
     5.044000000  5.044000000 15.000000000     0.228925563  0.228925563  0.066666667

  position of ions in fractional coordinates (direct lattice)
     0.333481117  0.166743137  0.338140385
     0.500169288  0.000150954  0.338117411
     0.333461746  0.666733449  0.337831925
     0.500169285  0.500023737  0.338117409
     0.833456475  0.166744471  0.338135786
     0.000131755  0.000068577  0.338120511
     0.833456492  0.666717201  0.338135817
     0.000047897  0.500026647  0.338118001

  ion indices of the primitive-cell ions
   primitive index   ion index
                 1           1
                 2           2
                 3           3
                 4           4
                 5           5
                 6           6
                 7           7
                 8           8

 KPOINTS: k-points

Automatic generation of k-mesh.
 Grid dimensions read from file:
 generate k-points for:   17   17    1

 Generating k-lattice:

  Cartesian coordinates                     Fractional coordinates (reciprocal lattice)
     0.006733105  0.011662080  0.000000000     0.058823529  0.000000000  0.000000000
    -0.006733105  0.011662080  0.000000000     0.000000000  0.058823529  0.000000000
     0.000000000  0.000000000  0.066666667     0.000000000  0.000000000  1.000000000

  Length of vectors
     0.013466210  0.013466210  0.066666667

  Shift w.r.t. Gamma in fractional coordinates (k-lattice)
     0.000000000  0.000000000  0.000000000

 Subroutine IBZKPT returns following result:

 Found     33 irreducible k-points:

 Following reciprocal coordinates:
            Coordinates               Weight
  0.000000  0.000000  0.000000      1.000000
  0.058824 -0.000000  0.000000      6.000000
  0.117647 -0.000000  0.000000      6.000000
  0.176471 -0.000000  0.000000      6.000000
  0.235294 -0.000000  0.000000      6.000000
  0.294118 -0.000000  0.000000      6.000000
  0.352941  0.000000  0.000000      6.000000
  0.411765 -0.000000  0.000000      6.000000
  0.470588 -0.000000  0.000000      6.000000
  0.058824  0.058824  0.000000      6.000000
  0.117647  0.058824  0.000000     12.000000
  0.176471  0.058824  0.000000     12.000000
  0.235294  0.058824  0.000000     12.000000
  0.294118  0.058824  0.000000     12.000000
  0.352941  0.058824  0.000000     12.000000
  0.411765  0.058824  0.000000     12.000000
  0.470588  0.058824  0.000000      6.000000
  0.117647  0.117647  0.000000      6.000000
  0.176471  0.117647  0.000000     12.000000
  0.235294  0.117647  0.000000     12.000000
  0.294118  0.117647  0.000000     12.000000
  0.352941  0.117647  0.000000     12.000000
  0.411765  0.117647  0.000000     12.000000
  0.176471  0.176471  0.000000      6.000000
  0.235294  0.176471  0.000000     12.000000
  0.294118  0.176471  0.000000     12.000000
  0.352941  0.176471  0.000000     12.000000
  0.411765  0.176471  0.000000      6.000000
  0.235294  0.235294  0.000000      6.000000
  0.294118  0.235294  0.000000     12.000000
  0.352941  0.235294  0.000000     12.000000
  0.294118  0.294118  0.000000      6.000000
  0.352941  0.294118  0.000000      6.000000

 Following cartesian coordinates:
            Coordinates               Weight
  0.000000  0.000000  0.000000      1.000000
  0.006733  0.011662  0.000000      6.000000
  0.013466  0.023324  0.000000      6.000000
  0.020199  0.034986  0.000000      6.000000
  0.026932  0.046648  0.000000      6.000000
  0.033666  0.058310  0.000000      6.000000
  0.040399  0.069972  0.000000      6.000000
  0.047132  0.081635  0.000000      6.000000
  0.053865  0.093297  0.000000      6.000000
 -0.000000  0.023324  0.000000      6.000000
  0.006733  0.034986  0.000000     12.000000
  0.013466  0.046648  0.000000     12.000000
  0.020199  0.058310  0.000000     12.000000
  0.026932  0.069972  0.000000     12.000000
  0.033666  0.081635  0.000000     12.000000
  0.040399  0.093297  0.000000     12.000000
  0.047132  0.104959  0.000000      6.000000
 -0.000000  0.046648  0.000000      6.000000
  0.006733  0.058310  0.000000     12.000000
  0.013466  0.069972  0.000000     12.000000
  0.020199  0.081635  0.000000     12.000000
  0.026932  0.093297  0.000000     12.000000
  0.033666  0.104959  0.000000     12.000000
  0.000000  0.069972  0.000000      6.000000
  0.006733  0.081635  0.000000     12.000000
  0.013466  0.093297  0.000000     12.000000
  0.020199  0.104959  0.000000     12.000000
  0.026932  0.116621  0.000000      6.000000
 -0.000000  0.093297  0.000000      6.000000
  0.006733  0.104959  0.000000     12.000000
  0.013466  0.116621  0.000000     12.000000
 -0.000000  0.116621  0.000000      6.000000
  0.006733  0.128283  0.000000      6.000000

 SYSTEM =  SC
 POSCAR =  Graphene-BC3 Hollow with lattice paramet

 Startparameter for this run:
   NWRITE =      2    write-flag & timer
   PREC   = accura    normal or accurate (medium, high low for compatibility)
   ISTART =      0    job   : 0-new  1-cont  2-samecut
   ICHARG =      2    charge: 1-file 2-atom 10-const
   ISPIN  =      1    spin polarized calculation?
   LNONCOLLINEAR =      F non collinear calculations
   LSORBIT =      F    spin-orbit coupling
   INIWAV =      1    electr: 0-lowe 1-rand  2-diag
   LASPH  =      F    aspherical Exc in radial PAW
 Electronic Relaxation 1
   ENCUT  =  450.0 eV  33.07 Ry    5.75 a.u.   8.72  8.72 25.95*2*pi/ulx,y,z
   ENINI  =  450.0     initial cutoff
   ENAUG  =  644.9 eV  augmentation charge cutoff
   NELM   =     64;   NELMIN=  2; NELMDL= -5     # of ELM steps
   EDIFF  = 0.1E-05   stopping-criterion for ELM
   LREAL  =      F    real-space projection
   NLSPLINE    = F    spline interpolate recip. space projectors
   LCOMPAT=      F    compatible to vasp.4.4
   GGA_COMPAT  = T    GGA compatible to vasp.4.4-vasp.4.6
   LMAXPAW     = -100 max onsite density
   LMAXMIX     =    2 max onsite mixed and CHGCAR
   VOSKOWN=      0    Vosko Wilk Nusair interpolation
   ROPT   =    0.00000
 Ionic relaxation
   EDIFFG = -.1E-02   stopping-criterion for IOM
   NSW    =      0    number of steps for IOM
   NBLOCK =      1;   KBLOCK =      1    inner block; outer block
   IBRION =     -1    ionic relax: 0-MD 1-quasi-New 2-CG
   NFREE  =      0    steps in history (QN), initial steepest desc. (CG)
   ISIF   =      2    stress and relaxation
   IWAVPR =     10    prediction:  0-non 1-charg 2-wave 3-comb
   ISYM   =      2    0-nonsym 1-usesym 2-fastsym
   LCORR  =      T    Harris-Foulkes like correction to forces

   POTIM  = 0.5000    time-step for ionic-motion
   TEIN   =    0.0    initial temperature
   TEBEG  =    0.0;   TEEND  =   0.0 temperature during run
   SMASS  =  -3.00    Nose mass-parameter (am)
   estimated Nose-frequenzy (Omega)   =  0.10E-29 period in steps = 0.13E+47 mass=  -0.581E-27a.u.
   SCALEE = 1.0000    scale energy and forces
   NPACO  =    256;   APACO  = 10.0  distance and # of slots for P.C.
   PSTRESS=    0.0 pullay stress

  Mass of Ions in am
   POMASS =  12.01
  Ionic Valenz
   ZVAL   =   4.00
  Atomic Wigner-Seitz radii
  virtual crystal weights
   VCA    =   1.00
   NELECT =      32.0000    total number of electrons
   NUPDOWN=      -1.0000    fix difference up-down

 DOS related values:
   EMIN   =  10.00;   EMAX   =-10.00  energy-range for DOS
   EFERMI =   0.00;   METHOD = LEGACY
   ISMEAR =     0;   SIGMA  =   0.10  broadening in eV -4-tet -1-fermi 0-gaus

 Electronic relaxation 2 (details)
   IALGO  =     38    algorithm
   LDIAG  =      T    sub-space diagonalisation (order eigenvalues)
   LSUBROT=      F    optimize rotation matrix (better conditioning)
   TURBO    =      0    0=normal 1=particle mesh
   IRESTART =      0    0=no restart 2=restart with 2 vectors
   NREBOOT  =      0    no. of reboots
[...]
 k-point   4 :   0.1765-0.0000 0.0000  plane waves:    7181
 k-point   5 :   0.2353-0.0000 0.0000  plane waves:    7185
 k-point   6 :   0.2941-0.0000 0.0000  plane waves:    7175
 k-point   7 :   0.3529 0.0000 0.0000  plane waves:    7165
 k-point   8 :   0.4118-0.0000 0.0000  plane waves:    7179
 k-point   9 :   0.4706-0.0000 0.0000  plane waves:    7186
 k-point  10 :   0.0588 0.0588 0.0000  plane waves:    7155
 k-point  11 :   0.1176 0.0588 0.0000  plane waves:    7169
 k-point  12 :   0.1765 0.0588 0.0000  plane waves:    7177
 k-point  13 :   0.2353 0.0588 0.0000  plane waves:    7168
 k-point  14 :   0.2941 0.0588 0.0000  plane waves:    7162
 k-point  15 :   0.3529 0.0588 0.0000  plane waves:    7157
 k-point  16 :   0.4118 0.0588 0.0000  plane waves:    7174
 k-point  17 :   0.4706 0.0588 0.0000  plane waves:    7182
 k-point  18 :   0.1176 0.1176 0.0000  plane waves:    7165
 k-point  19 :   0.1765 0.1176 0.0000  plane waves:    7165
 k-point  20 :   0.2353 0.1176 0.0000  plane waves:    7173
 k-point  21 :   0.2941 0.1176 0.0000  plane waves:    7161
 k-point  22 :   0.3529 0.1176 0.0000  plane waves:    7171
 k-point  23 :   0.4118 0.1176 0.0000  plane waves:    7170
 k-point  24 :   0.1765 0.1765 0.0000  plane waves:    7151
 k-point  25 :   0.2353 0.1765 0.0000  plane waves:    7144
 k-point  26 :   0.2941 0.1765 0.0000  plane waves:    7168
 k-point  27 :   0.3529 0.1765 0.0000  plane waves:    7144
 k-point  28 :   0.4118 0.1765 0.0000  plane waves:    7164
 k-point  29 :   0.2353 0.2353 0.0000  plane waves:    7161
 k-point  30 :   0.2941 0.2353 0.0000  plane waves:    7139
 k-point  31 :   0.3529 0.2353 0.0000  plane waves:    7142
 k-point  32 :   0.2941 0.2941 0.0000  plane waves:    7129
 k-point  33 :   0.3529 0.2941 0.0000  plane waves:    7129

 maximum and minimum number of plane-waves per node :      7186     7129

 maximum number of plane-waves:      7186
 maximum index in each direction:
   IXMAX=    8   IYMAX=    8   IZMAX=   25
   IXMIN=   -9   IYMIN=   -9   IZMIN=  -25

 serial   3D FFT for wavefunctions
 parallel 3D FFT for charge:
    minimum data exchange during FFTs selected (reduces bandwidth)

 Broyden mixing: mesh for mixing (old mesh)
   NGX = 17   NGY = 17   NGZ = 51
  (NGX  = 72   NGY  = 72   NGZ  =216)
  gives a total of  14739 points

 initial charge density was supplied:
 charge density of overlapping atoms calculated
 number of electron      32.0000000 magnetization
 keeping initial charge density in first step

 Maximum index for augmentation-charges          315 (set IRDMAX)

 First call to EWALD:  gamma=   0.256
 Maximum number of real-space cells 4x 4x 2
 Maximum number of reciprocal cells 2x 2x 5

--------------------------------------- Ionic step        1  -------------------------------------------

--------------------------------------- Iteration      1(   1)  ---------------------------------------

 eigenvalue-minimisations  : 40800
 total energy-change (2. order) :-0.7024283E+02  (-0.1540707E+04)
 number of electron      32.0000000 magnetization
 augmentation part       32.0000000 magnetization

 Free energy of the ion-electron system (eV)
  alpha Z        PSCENC =        15.90736088
  Ewald energy   TEWEN  =      3152.89397855
  -Hartree energ DENC   =     -4041.29980321
  -exchange      EXHF   =         0.00000000
  -V(xc)+E(xc)   XCENC  =       104.24981830
  PAW double counting   =       868.17637104     -872.73161751
  entropy T*S    EENTRO =        -0.00000296
  eigenvalues    EBANDS =      -474.59396111
  atomic energy  EATOM  =      1177.15502788
  Solvation  Ediel_sol  =         0.00000000
  free energy    TOTEN  =       -70.24282814 eV

  energy without entropy =      -70.24282518  energy(sigma->0) =      -70.24282666

[...]

 eigenvalue-minimisations  : 31680
 total energy-change (2. order) :-0.2755769E-09  ( 0.2708210E-11)
 number of electron      32.0000005 magnetization
 augmentation part        0.8027894 magnetization

 Broyden mixing:
  rms(total) = 0.11620E+01    rms(broyden)= 0.11619E+01
  rms(prec ) = 0.12986E+01
  weight for this iteration     100.00

[...]

 eigenvalue-minimisations  : 59040
 total energy-change (2. order) : 0.2933500E+01  (-0.2863212E+00)
 number of electron      32.0000005 magnetization
 augmentation part        0.7667173 magnetization

[...]

 eigenvalues of (default mixing * dielectric matrix)
  average eigenvalue GAMMA=   2.2281
  2.2281

[...]

 eigenvalue-minimisations  : 60000
 total energy-change (2. order) : 0.3533061E-02  (-0.5090444E-03)
 number of electron      32.0000004 magnetization
 augmentation part        0.7265632 magnetization

[...]

 eigenvalue-minimisations  : 57600
 total energy-change (2. order) :-0.1123612E-05  (-0.2214788E-09)
 number of electron      32.0000004 magnetization
 augmentation part        0.7263076 magnetization

 Broyden mixing:
  rms(total) = 0.70734E-05    rms(broyden)= 0.70702E-05
  rms(prec ) = 0.88141E-05
  weight for this iteration     100.00

 eigenvalues of (default mixing * dielectric matrix)
  average eigenvalue GAMMA=   2.9879
  9.6180  5.8870  3.9382  2.9429  1.9749  2.7146  2.4596  2.3388  1.0200  0.9966
  0.9819  0.9819

[...]

--------------------------------------- Iteration      1(  18)  ---------------------------------------

 eigenvalue-minimisations  : 54240
 total energy-change (2. order) :-0.4020640E-06  ( 0.1397674E-08)
 number of electron      32.0000004 magnetization
 augmentation part        0.7263076 magnetization

 Free energy of the ion-electron system (eV)
  alpha Z        PSCENC =        15.90736088
  Ewald energy   TEWEN  =      3152.89397855
  -Hartree energ DENC   =     -4159.01534478
  -exchange      EXHF   =         0.00000000
  -V(xc)+E(xc)   XCENC  =       108.57071850
  PAW double counting   =      3058.22922996    -3063.55739288
  entropy T*S    EENTRO =        -0.00000207
  eigenvalues    EBANDS =      -363.75357368
  atomic energy  EATOM  =      1177.15502788
  Solvation  Ediel_sol  =         0.00000000
  free energy    TOTEN  =       -73.56999764 eV

  energy without entropy =      -73.56999557  energy(sigma->0) =      -73.56999661

 average (electrostatic) potential at core
  the test charge radii are     0.6991
  (the norm of the test charge is              1.0000)
       1 -58.0399       2 -58.0389       3 -58.0394       4 -58.0389       5 -58.0389
       6 -58.0399       7 -58.0389       8 -58.0396

 E-fermi :  -2.4838     XC(G=0):  -2.8386     alpha+bet : -2.4260

 Fermi energy:        -2.4838238389

 k-point     1 :       0.0000    0.0000    0.0000
  band No.  band energies     occupation
      1     -21.4633      2.00000
      2     -16.5222      2.00000
      3     -16.5214      2.00000
      4     -16.5171      2.00000
      5     -15.2932      2.00000
      6     -15.2907      2.00000
      7     -15.2902      2.00000
      8      -9.6556      2.00000
      9      -8.7065      2.00000
     10      -8.7031      2.00000
     11      -8.7027      2.00000
     12      -5.5340      2.00000
     13      -5.5338      2.00000
     14      -4.7147      2.00000
     15      -4.7141      2.00000
     16      -4.7113      2.00000
     17      -0.8395      0.00000
     18      -0.8363      0.00000
     19      -0.8362      0.00000
     20       0.9744      0.00000
     21       1.8648      0.00000
     22       2.4207      0.00000
     23       4.2401      0.00000
     24       4.2468      0.00000
     25       4.2470      0.00000
     26       4.2872      0.00000
     27       5.0747      0.00000
     28       5.4093      0.00000
     29       5.4095      0.00000
     30       8.1463      0.00000
     31       8.1960      0.00000
     32       8.4742      0.00000
     33       8.4744      0.00000
     34       8.4754      0.00000
     35       8.5290      0.00000
     36       8.6306      0.00000
     37       8.6307      0.00000
     38       8.6308      0.00000
     39       9.2989      0.00000
     40       9.2997      0.00000
     41       9.2998      0.00000
     42       9.3215      0.00000
     43       9.5783      0.00000
     44       9.5783      0.00000
     45       9.5785      0.00000
     46      10.2014      0.00000
     47      10.2015      0.00000
     48      10.2017      0.00000
     49      10.2285      0.00000
     50      10.2286      0.00000
     51      10.2287      0.00000
     52      11.4738      0.00000
     53      11.4739      0.00000
     54      11.4740      0.00000
     55      12.0046      0.00000
     56      12.0047      0.00000
     57      12.0049      0.00000
     58      12.5845      0.00000
     59      12.5846      0.00000
     60      12.5850      0.00000
[...]
    466      69.7506      0.00000
    467      69.7508      0.00000
    468      69.8604      0.00000
    469      69.8604      0.00000
    470      69.8611      0.00000
    471      70.0045      0.00000
    472      70.0049      0.00000
    473      70.0050      0.00000
    474      70.1663      0.00000
    475      70.1668      0.00000
    476      70.1668      0.00000
    477      70.3258      0.00000
    478      70.4980      0.00000
    479      70.4981      0.00000
    480      70.4986      0.00000

[...]

 k-point    33 :       0.3529    0.2941    0.0000
  band No.  band energies     occupation
      1     -19.6975      2.00000
      2     -19.6952      2.00000
      3     -19.3719      2.00000
      4     -15.0942      2.00000
      5     -14.6762      2.00000
      6     -12.5101      2.00000
      7     -10.4980      2.00000
      8     -10.0099      2.00000
      9     -10.0073      2.00000
     10      -8.9885      2.00000
     11      -8.5323      2.00000
     12      -8.5292      2.00000
     13      -7.6108      2.00000
     14      -7.6089      2.00000
     15      -7.2428      2.00000
     16      -2.7490      1.99982
     17      -2.2187      0.00018
     18       3.0914      0.00000
     19       3.3886      0.00000
     20       3.3887      0.00000
     21       3.6879      0.00000
     22       3.6908      0.00000
     23       3.8383      0.00000
     24       4.2797      0.00000
     25       4.2797      0.00000
     26       4.7221      0.00000
     27       4.8802      0.00000
     28       4.8803      0.00000
     29       5.3394      0.00000
     30       6.6710      0.00000
     31       6.6710      0.00000
     32       6.7531      0.00000
     33       6.7568      0.00000
     34       7.1033      0.00000
     35       7.1965      0.00000
     36       7.5145      0.00000
     37       7.5146      0.00000
     38       7.9694      0.00000
     39       8.0505      0.00000
     40       8.1738      0.00000
     41       8.1776      0.00000
     42       8.2234      0.00000
     43       9.8036      0.00000
     44       9.9151      0.00000
     45      10.4029      0.00000
     46      10.4030      0.00000
     47      10.6486      0.00000
     48      10.7407      0.00000
     49      11.7051      0.00000
     50      11.7052      0.00000
     51      11.7565      0.00000
     52      11.9991      0.00000
     53      12.1430      0.00000
     54      12.4340      0.00000
     55      12.4639      0.00000
     56      12.6205      0.00000
     57      13.1240      0.00000
     58      13.2188      0.00000
     59      13.4297      0.00000
     60      13.4586      0.00000
[...]
    466      70.0548      0.00000
    467      70.3814      0.00000
    468      70.4577      0.00000
    469      70.4579      0.00000
    470      70.5960      0.00000
    471      70.5964      0.00000
    472      70.9453      0.00000
    473      71.2453      0.00000
    474      71.3914      0.00000
    475      71.3914      0.00000
    476      71.4074      0.00000
    477      71.4989      0.00000
    478      71.6246      0.00000
    479      71.6862      0.00000
    480      71.6863      0.00000

 soft charge-density along one line, spin component           1
         0         1         2         3         4         5         6         7         8         9
 total charge-density along one line

------------------------ aborting loop because EDIFF is reached ----------------------------------------

         DFTD3 V3.0 Rev 1
 IVDW         = 12
 DF pbe
 parameters
 VDW_S6       =    1.0000
 VDW_S8       =    0.7875
 VDW_A1       =    0.4289
 VDW_A2       =    4.4407
 k1-k3        =   16.0000    1.3333   -4.0000
 VDW_RADIUS   =   50.2022 A
 VDW_CNRADIUS =   21.1671 A
 Edisp (eV)   -0.69532

 E6    (eV) :    -0.4779
 E8    (eV) :    -0.2175
 % E8        : 31.28

  FORCE on cell =-STRESS in cart. coord.  units (eV):
  Direction    XX          YY          ZZ          XY          YZ          ZX
  Alpha Z    15.90736    15.90736    15.90736
  Ewald    4204.50391  4204.49916 -5256.11050    -0.00314    -0.00002    -0.00001
  Hartree  4111.74430  4111.74426 -4064.47327    -0.00003    -0.00000    -0.00000
  E(xc)    -117.22686  -117.22686  -121.62980     0.00000     0.00000     0.00000
  Local   -8665.23982 -8665.23760  8910.81163     0.00153     0.00001     0.00001
  n-local   -26.29200   -25.89628   -24.67596     0.27626    -0.00034    -0.00048
  augment    -2.84220    -2.84209    -2.68087     0.00001     0.00000     0.00000
  Kinetic   478.24539   457.50299   542.57538    -9.15366     0.00609     0.01059
  Fock        0.00000     0.00000     0.00000     0.00000     0.00000     0.00000
  vdW        -0.43665    -0.43665    -0.00577     0.00000    -0.00000    -0.00000
  Total     -11.81115   -11.81115    -0.28180    -0.00000    -0.00000     0.00000
  in kB     -57.25729   -57.25729    -1.36610    -0.00000    -0.00000     0.00000

 VOLUME and BASIS-vectors are now :
  energy-cutoff  :      450.00
  volume of cell :      330.50
      direct lattice vectors                 reciprocal lattice vectors
     4.368232137  2.522000000  0.000000000     0.114462781  0.198255353  0.000000000
    -4.368232137  2.522000000  0.000000000    -0.114462781  0.198255353  0.000000000
     0.000000000  0.000000000 15.000000000     0.000000000  0.000000000  0.066666667

  length of vectors
     5.044000000  5.044000000 15.000000000     0.228925563  0.228925563  0.066666667

 FORCES acting on ions
    electron-ion (+dipol)            ewald-force                    non-local-force                 convergence-correction
   0.458E-01 0.794E-01 -.299E+00   -.479E-01 -.828E-01 0.277E+00   0.390E-03 0.676E-03 0.392E-02   -.465E-05 -.805E-05 0.525E-05
   -.580E-01 0.107E+00 -.299E+00   0.731E-01 -.116E+00 0.312E+00   0.523E-02 -.906E-02 -.316E-01   0.465E-05 -.793E-05 -.382E-05
   0.135E-02 0.243E-02 0.177E+01   0.226E-02 0.413E-02 -.179E+01   -.240E-16 -.376E-16 0.805E-01   0.328E-07 0.566E-07 -.190E-04
   0.122E+00 0.345E-02 -.299E+00   -.137E+00 0.535E-02 0.312E+00   -.105E-01 0.793E-17 -.316E-01   -.919E-05 0.642E-07 -.382E-05
   -.900E-01 -.141E-03 -.244E+00   0.957E-01 -.451E-02 0.245E+00   -.781E-03 0.821E-18 0.392E-02   0.932E-05 -.571E-07 0.529E-05
   0.153E-03 0.125E-03 -.828E-01   -.175E-02 -.319E-02 0.801E-01   -.221E-17 0.201E-16 0.216E-02   -.377E-07 -.652E-07 0.977E-05
   0.448E-01 -.780E-01 -.244E+00   -.519E-01 0.807E-01 0.245E+00   0.390E-03 -.676E-03 0.392E-02   -.471E-05 0.805E-05 0.529E-05
   -.603E-01 -.105E+00 -.307E+00   0.671E-01 0.116E+00 0.319E+00   0.523E-02 0.906E-02 -.316E-01   0.458E-05 0.793E-05 -.380E-05
   0.607E-02 0.102E-01 0.482E-04   0.742E-14 0.994E-14 0.167E-15   -.286E-16 -.347E-16 -.367E-03   -.667E-09 -.135E-08 -.481E-05

 POSITION                                       TOTAL-FORCE (eV/Angst)
      0.72835      1.26157      5.07211        -0.002245     -0.003888     -0.002259
      2.18420      1.26181      5.07176         0.012391     -0.021463     -0.019077
     -1.45581      2.52249      5.06748        -0.000000     -0.000000      0.064492
      0.00064      2.52249      5.07176        -0.024783     -0.000000     -0.019077
      2.91235      2.52251      5.07204         0.004490     -0.000000     -0.002259
      0.00028      0.00051      5.07181        -0.000000     -0.000000     -0.000486
      0.72836      3.78344      5.07204        -0.002245      0.003888     -0.002259
     -2.18402      1.26119      5.07177         0.012391      0.021463     -0.019077
    total drift:                                0.006070      0.010249     -0.000323

  FREE ENERGIE OF THE ION-ELECTRON SYSTEM (eV)
  free  energy   TOTEN  =       -74.26532010 eV

  energy  without entropy=      -74.26531803  energy(sigma->0) =      -74.26531907

 stress matrix after NEB project (eV)
    -11.81115     -0.00000      0.00000
     -0.00000    -11.81115      0.00000
      0.00000     -0.00000     -0.28180
  FORCES: max atom, RMS     0.064492    0.029936
  FORCE total and by dimension    0.084673    0.064492
  Stress total and by dimension   16.705867   11.811151
 writing wavefunctions