 vasp.6.3.2 27Jun22 (build May 31 2023 12:07:17) complex

 executed on             LinuxIFC date 2024.04.27  01:49:27

 INCAR:
   SYSTEM = Dielectric_function
   ISTART = 1
   ICHARG = 2
   PREC = Accurate
   ENCUT = 450
   ALGO = Damped
   EDIFF = 1E-8
   NEDOS = 4000
   ISMEAR = 0
   SIGMA = 0.01
   GGA = PE
   LHFCALC = .TRUE.
   AEXX = 0.25
   HFSCREEN = 0.2
   LOPTICS = .TRUE.
   CSHIFT = 0.1
   NBANDS = 128
   NCORE = 16
   LREAL = .FALSE.

 POTCAR:    PAW_PBE B 06Sep2000
 POTCAR:    PAW_PBE C 08Apr2002
 POTCAR:    PAW_PBE B 06Sep2000
   VRHFIN =B: s2p1

   TITEL  = PAW_PBE B 06Sep2000
   POMASS =   10.811; ZVAL   =    3.000    mass and valenz
   ENMAX  =  318.614; ENMIN  =  238.960 eV

   TITEL  = PAW_PBE C 08Apr2002
   POMASS =   12.011; ZVAL   =    4.000    mass and valenz
   ENMAX  =  400.000; ENMIN  =  300.000 eV

  PAW_PBE B 06Sep2000                   :
  PAW_PBE C 08Apr2002                   :

 POSCAR: Graphene-BC3 Hollow with lattice paramet
  positions in direct lattice
  velocities in cartesian coordinates
 exchange correlation table for  LEXCH =        8
   RHO(1)=    0.500       N(1)  =     2000
   RHO(2)=  100.500       N(2)  =     4000

 ion  position               nearest neighbor table
   1  0.338  0.669  0.113-   7 1.52   5 1.52   3 1.52
   2  0.672  0.336  0.113-   8 1.52   6 1.52   4 1.52
   3  0.164  0.322  0.113-   4 1.39   6 1.39   1 1.52
   4  0.324  0.162  0.113-   5 1.39   3 1.39   2 1.52
   5  0.164  0.843  0.113-   4 1.39   8 1.39   1 1.52
   6  0.845  0.162  0.113-   7 1.39   3 1.39   2 1.52
   7  0.686  0.843  0.113-   6 1.39   8 1.39   1 1.52
   8  0.845  0.683  0.113-   7 1.39   5 1.39   2 1.52
   9  0.333  0.167  0.338-  10 1.46  12 1.46  14 1.46
  10  0.500  0.000  0.338-   9 1.46  13 1.46  11 1.46
  11  0.333  0.667  0.338-  16 1.46  12 1.46  10 1.46
  12  0.500  0.500  0.338-   9 1.46  15 1.46  11 1.46
  13  0.833  0.167  0.338-  16 1.46  10 1.46  14 1.46
  14  0.000  0.000  0.338-   9 1.46  13 1.46  15 1.46
  15  0.833  0.667  0.338-  16 1.46  12 1.46  14 1.46
  16  0.000  0.500  0.338-  15 1.46  13 1.46  11 1.46

  LATTYP: Found a hexagonal cell.
 ALAT       =     5.0440000000
 C/A-ratio  =     2.9738302934

  Lattice vectors:

 A1 = (   4.3682321367,   2.5220000000,   0.0000000000)
 A2 = (  -4.3682321367,   2.5220000000,   0.0000000000)
 A3 = (   0.0000000000,   0.0000000000,  15.0000000000)

Analysis of symmetry for initial positions (statically):
 Subroutine PRICEL returns:
 Original cell was already a primitive cell.

 Routine SETGRP: Setting up the symmetry group for a
 hexagonal supercell.

 Subroutine GETGRP returns: Found  1 space group operations
 (whereof  1 operations were pure point group operations)
 out of a pool of 24 trial point group operations.

The static configuration has the point symmetry C_1 .

Analysis of symmetry for dynamics (positions and initial velocities):
 Subroutine PRICEL returns:
 Original cell was already a primitive cell.

 Routine SETGRP: Setting up the symmetry group for a
 hexagonal supercell.

 Subroutine GETGRP returns: Found  1 space group operations
 (whereof  1 operations were pure point group operations)
 out of a pool of 24 trial point group operations.

The dynamic configuration has the point symmetry C_1 .

 Subroutine INISYM returns: Found  1 space group operations
 (whereof  1 operations are pure point group operations),
 and found     1 'primitive' translations

                                     Primitive cell

  volume of cell :     330.5004

  direct lattice vectors                    reciprocal lattice vectors
     4.368232137  2.522000000  0.000000000     0.114462781  0.198255353  0.000000000
    -4.368232137  2.522000000  0.000000000    -0.114462781  0.198255353  0.000000000
     0.000000000  0.000000000 15.000000000     0.000000000  0.000000000  0.066666667

  length of vectors
     5.044000000  5.044000000 15.000000000     0.228925563  0.228925563  0.066666667

  position of ions in fractional coordinates (direct lattice)
     0.338203334  0.669098661  0.113381622
     0.671538623  0.335766770  0.113066104
     0.164492162  0.321676120  0.113073872
     0.324038669  0.162015918  0.113080124
     0.164492146  0.842809624  0.113074202
     0.845282693  0.162014532  0.113070458
     0.685620398  0.842806916  0.113065505
     0.845283256  0.683261954  0.113070868
     0.333481117  0.166743137  0.338140385
     0.500169288  0.000150954  0.338117411
     0.333461746  0.666733449  0.337831925
     0.500169285  0.500023737  0.338117409
     0.833456475  0.166744471  0.338135786
     0.000131755  0.000068577  0.338120511
     0.833456492  0.666717201  0.338135817
     0.000047897  0.500026647  0.338118001

  ion indices of the primitive-cell ions
   primitive index   ion index
                 1           1
                 2           2
                 3           3
                 4           4
                 5           5
                 6           6
                 7           7
                 8           8
                 9           9
                10          10
                11          11
                12          12
                13          13
                14          14
                15          15
                16          16

 KPOINTS: k-points

Automatic generation of k-mesh.
 Grid dimensions read from file:
 generate k-points for:   17   17    1

 Generating k-lattice:

  Cartesian coordinates                     Fractional coordinates (reciprocal lattice)
     0.006733105  0.011662080  0.000000000     0.058823529  0.000000000  0.000000000
    -0.006733105  0.011662080  0.000000000     0.000000000  0.058823529  0.000000000
     0.000000000  0.000000000  0.066666667     0.000000000  0.000000000  1.000000000

  Length of vectors
     0.013466210  0.013466210  0.066666667

  Shift w.r.t. Gamma in fractional coordinates (k-lattice)
     0.000000000  0.000000000  0.000000000

 Subroutine IBZKPT returns following result:

 Found    145 irreducible k-points:

 Following reciprocal coordinates:
            Coordinates               Weight
  0.000000  0.000000  0.000000      1.000000
  0.058824 -0.000000  0.000000      2.000000
 -0.000000  0.058824  0.000000      2.000000
 -0.058824  0.058824  0.000000      2.000000
  0.117647 -0.000000  0.000000      2.000000
 -0.000000  0.117647  0.000000      2.000000
 -0.117647  0.117647  0.000000      2.000000
  0.176471  0.000000  0.000000      2.000000
  0.000000  0.176471  0.000000      2.000000
 -0.176471  0.176471  0.000000      2.000000
  0.235294 -0.000000  0.000000      2.000000
 -0.000000  0.235294  0.000000      2.000000
 -0.235294  0.235294  0.000000      2.000000
  0.294118 -0.000000  0.000000      2.000000
 -0.000000  0.294118  0.000000      2.000000
 -0.294118  0.294118  0.000000      2.000000
  0.352941  0.000000  0.000000      2.000000
  0.000000  0.352941  0.000000      2.000000
 -0.352941  0.352941  0.000000      2.000000
  0.411765 -0.000000  0.000000      2.000000
 -0.000000  0.411765  0.000000      2.000000
 -0.411765  0.411765  0.000000      2.000000
  0.470588 -0.000000  0.000000      2.000000
 -0.000000  0.470588  0.000000      2.000000
 -0.470588  0.470588  0.000000      2.000000
  0.058824  0.058824  0.000000      2.000000
 -0.058824  0.117647  0.000000      2.000000
 -0.117647  0.058824  0.000000      2.000000
  0.117647  0.058824  0.000000      2.000000
 -0.058824  0.176471  0.000000      2.000000
 -0.176471  0.117647  0.000000      2.000000
 -0.117647  0.176471  0.000000      2.000000
  0.058824  0.117647  0.000000      2.000000
  0.176471 -0.058824  0.000000      2.000000
  0.176471  0.058824  0.000000      2.000000
 -0.058824  0.235294  0.000000      2.000000
 -0.235294  0.176471  0.000000      2.000000
 -0.176471  0.235294  0.000000      2.000000
  0.058824  0.176471  0.000000      2.000000
  0.235294 -0.058824  0.000000      2.000000
  0.235294  0.058824  0.000000      2.000000
 -0.058824  0.294118  0.000000      2.000000
 -0.294118  0.235294  0.000000      2.000000
 -0.235294  0.294118  0.000000      2.000000
  0.058824  0.235294  0.000000      2.000000
  0.294118 -0.058824  0.000000      2.000000
  0.294118  0.058824  0.000000      2.000000
 -0.058824  0.352941  0.000000      2.000000
 -0.352941  0.294118  0.000000      2.000000
 -0.294118  0.352941  0.000000      2.000000
  0.058824  0.294118  0.000000      2.000000
  0.352941 -0.058824  0.000000      2.000000
  0.352941  0.058824  0.000000      2.000000
 -0.058824  0.411765  0.000000      2.000000
 -0.411765  0.352941  0.000000      2.000000
 -0.352941  0.411765  0.000000      2.000000
  0.058824  0.352941  0.000000      2.000000
  0.411765 -0.058824  0.000000      2.000000
  0.411765  0.058824  0.000000      2.000000
 -0.058824  0.470588  0.000000      2.000000
[...]
 -0.294118 -0.470588  0.000000      2.000000
  0.235294  0.294118  0.000000      2.000000
 -0.470588 -0.235294  0.000000      2.000000
  0.352941  0.235294  0.000000      2.000000
 -0.235294 -0.411765  0.000000      2.000000
  0.411765  0.352941  0.000000      2.000000
 -0.352941 -0.411765  0.000000      2.000000
  0.235294  0.352941  0.000000      2.000000
 -0.411765 -0.235294  0.000000      2.000000
  0.294118  0.294118  0.000000      2.000000
 -0.294118 -0.411765  0.000000      2.000000
  0.411765  0.294118  0.000000      2.000000
  0.352941  0.294118  0.000000      2.000000
 -0.294118 -0.352941  0.000000      2.000000
  0.352941  0.352941  0.000000      2.000000

 Following cartesian coordinates:
            Coordinates               Weight
  0.000000  0.000000  0.000000      1.000000
  0.006733  0.011662  0.000000      2.000000
 -0.006733  0.011662  0.000000      2.000000
 -0.013466  0.000000  0.000000      2.000000
  0.013466  0.023324  0.000000      2.000000
 -0.013466  0.023324  0.000000      2.000000
 -0.026932  0.000000  0.000000      2.000000
  0.020199  0.034986  0.000000      2.000000
 -0.020199  0.034986  0.000000      2.000000
 -0.040399  0.000000  0.000000      2.000000
  0.026932  0.046648  0.000000      2.000000
 -0.026932  0.046648  0.000000      2.000000
 -0.053865  0.000000  0.000000      2.000000
  0.033666  0.058310  0.000000      2.000000
 -0.033666  0.058310  0.000000      2.000000
 -0.067331  0.000000  0.000000      2.000000
  0.040399  0.069972  0.000000      2.000000
 -0.040399  0.069972  0.000000      2.000000
 -0.080797  0.000000  0.000000      2.000000
  0.047132  0.081635  0.000000      2.000000
 -0.047132  0.081635  0.000000      2.000000
 -0.094263  0.000000  0.000000      2.000000
  0.053865  0.093297  0.000000      2.000000
 -0.053865  0.093297  0.000000      2.000000
 -0.107730  0.000000  0.000000      2.000000
  0.000000  0.023324  0.000000      2.000000
 -0.020199  0.011662  0.000000      2.000000
 -0.020199 -0.011662  0.000000      2.000000
  0.006733  0.034986  0.000000      2.000000
 -0.026932  0.023324  0.000000      2.000000
 -0.033666 -0.011662  0.000000      2.000000
 -0.033666  0.011662  0.000000      2.000000
 -0.006733  0.034986  0.000000      2.000000
  0.026932  0.023324  0.000000      2.000000
  0.013466  0.046648  0.000000      2.000000
 -0.033666  0.034986  0.000000      2.000000
[...]
  670          m_sumb_d                              0.004069                         21   4

 Flat profile

 m_alltoallv_z                      714214.083728    ********
 m_sumb_d                           467612.243633    ********
 dfftw_execute                       43673.426570    ********
 m_ireduce_z_to                      20543.342055      890880
 fftbas_plan_mpi                     18198.902409    ********
 map_scatter                         11821.569701    ********
 pw_charge_trace_mu_                 10926.201485     8213380
 vhamil_trace                         9517.712173    ********
 map_gather                           7412.960243    ********
 racc0mu_hf_                          5366.619424     8213380
 rpromu_hf                            5236.476267     8716240
 apply_gfac_exchange                  4397.346149    ********
 fock_fwd                             2278.468828        6960
 lr_optic                             1143.923200           1
 map_forward                          1143.563926    ********
 map_backward                         1067.649902    ********
 calc_dllmm_trans                     1060.658643    ********
 depsum_two_bands_rholm_trace_         864.170336    ********
 pw_charge_trace                       686.320919    32183040
 racc0_hf                              657.881916    64366080
 fft3d_mpi                             638.211172    ********
 fftbas_mpi                            636.399738    ********
 rpro1_hf                              613.579801    64366080
 fock_set_gfac_vkpt                    440.314999     2807635
 m_ibcast_z_from                       384.816062      913355
 apply_gfac_qder                       324.211617    32183040
 apply_gfac                            286.602495    64366080
 depsum_two_bands_rholm_trace          222.879562    ********
 depsum_two_bands_rholm_trace_m        191.417423     8213380
 pdssyex_zheevx                        175.259098        3480
 overl_fock                            152.999863    ********
 phaser_hf                             143.271827     2807635
 w1_copy                               123.942966     4754840
 m_alltoall_d                           73.619975     1453480
 fftwav_mpi                             56.481303     4811680
 fock_all_dblbuf                        53.545551          24
 waitred                                40.934121        6960
 waitgth                                35.604928        6960
 edwav                                  27.218859          23
 fock_charge_mu                         27.040093     8213380
 total_time                             24.563106           1
 bg_ppotrf_trtri                        20.470128        3480
 apply_gfac_weight                      18.502475     5196220
 fock_force                             17.827119           1
 dllmm_trans_eccp_nl_fock               16.503026      502860
 racc0mu_hf                             15.267663     8213380
 pw_charge_trace_mu                     12.008101     8213380
 elmin_all                               9.616139           1
 eccp_nl_fock                            6.752105    15588660
 m_bcast_z                               6.378084       20881
 depsum_two_bands_rholm_trace_m          5.449829     8213380
 eccp                                    4.245623      160080
 gemm                                    3.811503     2023040
 orth1                                   3.099144       53940
 wfinit                                  2.949929           1
 work_mul_crexp                          2.440665     2023040
 proj1                                   2.418735       87000
 lincom                                  2.081359        6815
 phase                                   1.732754        8266
 crexp_mul_wave                          1.588691     1392000
 vnlac0                                  1.492929      126440
 force_and_stress                        1.338467           1
 orth1_nosubindex                        1.120644       13920
 vhamil                                  1.076390       55680
 fft_and_gather                          1.061358        7105
 lincom_slice                            0.857740        6960
 fock_set_fsg                            0.802393           2
 fock_bck                                0.768988        6960
 fornl                                   0.763345           1
 pw_charge                               0.651109       27744
 projxyz                                 0.647909         145
 reduce                                  0.644487        6960
 w1_dscal                                0.601868       53360
 redis_proj                              0.569492      215325
 potlok                                  0.536778          25
 ggaall_grid                             0.500716          26
 redis_pw                                0.459652      228955
 eddiag_lr                               0.457860           3
 soft_charge_sym                         0.363587          24
 eddiag                                  0.253613           1
 spher                                   0.237054          16
 lrf_rphi0                               0.213490           3
 depsum_sym                              0.202912          24
 contraction                             0.185383      502860
 fftext_mpi                              0.143282      118320
 orthch                                  0.128718          24
 hamiltmu_commutator                     0.128710         870
 densta                                  0.106795          26
 kinhamil                                0.069029       55680
 hamilt_local                            0.062690       55680
 set_charge                              0.062057          24
 orth1_distri                            0.054377       13920
 lincom_distri                           0.048531        3480
 spher_der                               0.047457           6
 recon_slice                             0.038421        6960
 lrf_commutator                          0.037179           3
 augmentation_charge                     0.033488          24
 overl                                   0.033464       64090
 set_dd_paw                              0.029450          26
 forloc                                  0.027760           1
 setdij_                                 0.025953          33
 wrk_allocate                            0.023002           1
 overl1                                  0.022854       69600
 distri_slice                            0.019807       13920
 pothar                                  0.017826          25
 m_sum_g                                 0.012106       20880
 choleski                                0.011032        3480
 m_bcast_d                               0.009959          28
 inisym                                  0.006115           1
 rotate_active_occupied_orbital          0.005719           1
 redis_pw_all                            0.001930          23
 overl1_c                                0.001570        3480
 forhar                                  0.001449           1
 fewald                                  0.001359           1
 proj                                    0.001124         145
 set_dd_magatom                          0.000780           2
 rspher_all                              0.000537           4
 stufak                                  0.000378           1
 fftbrc_mpi                              0.000248         387
 brgrid                                  0.000239           1
 proall                                  0.000157           1
 rsp                                     0.000148           1
 fft_gq                                  0.000138          24
 wrk_deallocate                          0.000103           1
 rcp                                     0.000034           1
 crpa_reader                             0.000032           1
 shift_bands_between_low_high            0.000028         145
 redis_pw_over_bands                     0.000025          24
 potlok_metagga                          0.000015          24
 fordep                                  0.000012           1
 FERMAT_RAZOR                            0.000007           1
 posmap                                  0.000007           2
 vectorpot                               0.000001           1
  summed up times    1332666.60339904

 Accumulative profile

 total_time                        1332666.603399           1
 elmin_all                         1178458.097770           1
 fock_all_dblbuf                   1177643.569063          24
 fock_fwd                          1156567.645868        6960
 edwav                             1131376.193040          23
 fft3d_mpi                          798806.767636    ********
 fftbas_mpi                         798154.752854    ********
 fftbas_plan_mpi                    797532.156478    ********
 m_alltoallv_z                      714214.083728    ********
 m_sumb_d                           467612.243633    ********
 map_forward                        381221.307960    ********
 map_backward                       354438.519539    ********
 rpromu_hf                          223605.100361     8716240
 fock_charge_mu                     190990.588907     8213380
 racc0mu_hf                         178912.289478     8213380
 racc0mu_hf_                        178897.021815     8213380
 lr_optic                           141859.244640           1
 eddiag                              46961.405455           1
 dfftw_execute                       43673.426570    ********
 rpro1_hf                            30491.039155    64366080
 racc0_hf                            27346.660074    64366080
 reduce                              20543.986542        6960
 m_ireduce_z_to                      20543.342055      890880
 force_and_stress                    12289.948389           1
 fock_force                          12286.575560           1
 map_scatter                         11821.569701    ********
 pw_charge_trace_mu                  10938.209586     8213380
 pw_charge_trace_mu_                 10926.201485     8213380
 vhamil_trace                         9517.712173    ********
 map_gather                           7412.960243    ********
 apply_gfac_exchange                  4397.346149    ********
 fftwav_mpi                           3925.835583     4811680
 depsum_two_bands_rholm_trace_m       1113.049751     8213380
 depsum_two_bands_rholm_trace_m       1107.599922     8213380
 depsum_two_bands_rholm_trace         1087.049898    ********
 calc_dllmm_trans                     1060.658643    ********
 depsum_two_bands_rholm_trace_         864.170336    ********
 pw_charge_trace                       686.320919    32183040
 fft_and_gather                        589.731874        7105
 fock_set_gfac_vkpt                    583.586826     2807635
 m_ibcast_z_from                       384.816062      913355
 apply_gfac_qder                       324.211617    32183040
 apply_gfac                            286.602495    64366080
 pdssyex_zheevx                        175.259098        3480
 overl_fock                            152.999863    ********
 phaser_hf                             143.271827     2807635
 w1_copy                               123.942966     4754840
 orthch                                122.323933          24
 fock_bck                              116.934395        6960
 set_charge                            109.589009          24
 soft_charge_sym                       105.326952          24
 vnlac0                                101.356596      126440
 m_sum_g                                98.307267       20880
 m_alltoall_d                           73.619975     1453480
 fftext_mpi                             61.119141      118320
 redis_pw                               59.460955      228955
 dllmm_trans_eccp_nl_fock               59.112833      502860
 orth1_distri                           51.200848       13920
 lincom_distri                          49.245939        3480
 waitred                                40.934121        6960
 waitgth                                35.604928        6960
 proj1                                  34.601354       87000
 hamilt_local                           27.474710       55680
 kinhamil                               26.335631       55680
 choleski                               20.481160        3480
 bg_ppotrf_trtri                        20.470128        3480
 apply_gfac_weight                      18.502475     5196220
 lrf_rphi0                              15.716142           3
 redis_proj                             15.188164      215325
 fftbrc_mpi                             13.803609         387
 fft_gq                                  9.766799          24
 eddiag_lr                               8.174267           3
 wfinit                                  7.987884           1
 lrf_commutator                          7.202334           3
 eccp_nl_fock                            6.752105    15588660
 eccp                                    6.399227      160080
 m_bcast_z                               6.378084       20881
 gemm                                    3.811503     2023040
 potlok                                  3.567285          25
 hamiltmu_commutator                     3.510921         870
 orth1                                   3.099144       53940
 depsum_sym                              2.971775          24
 work_mul_crexp                          2.440665     2023040
 lincom                                  2.081359        6815
 phase                                   1.732754        8266
 fornl                                   1.720495           1
 projxyz                                 1.698001         145
 crexp_mul_wave                          1.588691     1392000
 augmentation_charge                     1.228225          24
 orth1_nosubindex                        1.120644       13920
 set_dd_paw                              1.101472          26
 vhamil                                  1.076390       55680
 densta                                  0.930225          26
 redis_pw_over_bands                     0.900357          24
 redis_pw_all                            0.900332          23
 fock_set_fsg                            0.885893           2
 lincom_slice                            0.857740        6960
 pw_charge                               0.651109       27744
 w1_dscal                                0.601868       53360
 wrk_allocate                            0.502566           1
 ggaall_grid                             0.500716          26
 proall                                  0.306718           1
 proj                                    0.278074         145
 spher                                   0.237054          16
 spher_der                               0.228200           6
 contraction                             0.185383      502860
 setdij_                                 0.079681          33
 recon_slice                             0.038421        6960
 pothar                                  0.035828          25
 forloc                                  0.034259           1
 overl                                   0.033464       64090
 overl1                                  0.022854       69600
 distri_slice                            0.019807       13920
 m_bcast_d                               0.009959          28
 inisym                                  0.006122           1
 rotate_active_occupied_orbital          0.005719           1
 fordep                                  0.005680           1
 fewald                                  0.003759           1
 forhar                                  0.002378           1
 overl1_c                                0.001570        3480
 set_dd_magatom                          0.000780           2
 rspher_all                              0.000537           4
 stufak                                  0.000378           1
 brgrid                                  0.000239           1
 rsp                                     0.000148           1
 wrk_deallocate                          0.000103           1
 rcp                                     0.000034           1
 crpa_reader                             0.000032           1
 shift_bands_between_low_high            0.000028         145
 potlok_metagga                          0.000015          24
 FERMAT_RAZOR                            0.000007           1
 posmap                                  0.000007           2
 vectorpot                               0.000001           1

Profiling took ********************  0.004248  0.004143 seconds
Profiling took ********** seconds