 vasp.6.3.2 27Jun22 (build Dec 22 2022 13:13:19) complex

 executed on             LinuxIFC date 2023.11.05  13:12:33

 INCAR:
   SYSTEM = BS
   ISTART = 0
   ICHARG = 11
   PREC = Accurate
   LORBIT = 11
   ENCUT = 450
   ALGO = Normal
   NELM = 64
   EDIFF = 1E-6
   EDIFFG = -1E-3
   SIGMA = 0.1
   ISMEAR = 0
   GGA = PE
   IVDW = 12
   ISYM = 0

 POTCAR:    PAW_PBE B 06Sep2000
 POTCAR:    PAW_PBE C 08Apr2002
 POTCAR:    PAW_PBE B 06Sep2000
   VRHFIN =B: s2p1

   TITEL  = PAW_PBE B 06Sep2000
   POMASS =   10.811; ZVAL   =    3.000    mass and valenz
   ENMAX  =  318.614; ENMIN  =  238.960 eV

   TITEL  = PAW_PBE C 08Apr2002
   POMASS =   12.011; ZVAL   =    4.000    mass and valenz
   ENMAX  =  400.000; ENMIN  =  300.000 eV

  PAW_PBE B 06Sep2000                   :
  PAW_PBE C 08Apr2002                   :

 POSCAR: B4C3 with lattice parameter 4.690
  positions in direct lattice
  velocities in cartesian coordinates
 exchange correlation table for  LEXCH =        8
   RHO(1)=    0.500       N(1)  =     2000
   RHO(2)=  100.500       N(2)  =     4000

 VTST: version 4.2, (08/11/21)

 CHAIN: initializing optimizer

 OPT: Using VASP Dynamics algorithm
 CHAIN: Read ICHAIN            0

 POSCAR: B4C3 with lattice parameter 4.690
  positions in direct lattice
  velocities in cartesian coordinates

 ion  position               nearest neighbor table
   1  0.004  0.003  0.120-   7 1.55   6 1.55   5 1.55   4 1.69   2 1.69   3 1.69
   2  0.357  0.003  0.098-   6 1.52   5 1.59   7 1.59   1 1.69
   3  0.004  0.356  0.098-   7 1.52   5 1.59   6 1.59   1 1.69
   4  0.651  0.650  0.098-   5 1.52   6 1.59   7 1.59   1 1.69
   5  0.328  0.327  0.100-   4 1.52   1 1.55   3 1.59   2 1.59
   6  0.680  0.003  0.100-   2 1.52   1 1.55   3 1.59   4 1.59
   7  0.004  0.679  0.100-   3 1.52   1 1.55   2 1.59   4 1.59

IMPORTANT INFORMATION: All symmetrisations will be switched off!
NOSYMM: (Re-)initialisation of all symmetry stuff for point group C_1.

                                     Primitive cell

  volume of cell :     285.7377

  direct lattice vectors                    reciprocal lattice vectors
     4.061659000  2.345000000  0.000000000     0.123102407  0.213219616  0.000000000
    -4.061659000  2.345000000  0.000000000    -0.123102407  0.213219616  0.000000000
     0.000000000  0.000000000 15.000000000     0.000000000  0.000000000  0.066666667

  length of vectors
     4.689999876  4.689999876 15.000000000     0.246204808  0.246204808  0.066666667

  position of ions in fractional coordinates (direct lattice)
     0.004183931  0.002770402  0.120265168
     0.356955219  0.002781990  0.097503442
     0.004186971  0.355542049  0.097502993
     0.651416230  0.650011713  0.097505455
     0.328100716  0.326694043  0.100282726
     0.680268274  0.002781113  0.100292166
     0.004186659  0.678856689  0.100294050

  ion indices of the primitive-cell ions
   primitive index   ion index
                 1           1
                 2           2
                 3           3
                 4           4
                 5           5
                 6           6
                 7           7

 KPOINTS: K-points

Interpolating k-points between supplied coordinates.

 Line segments in fractional coordinates (reciprocal lattice):
    0.000000  0.000000  0.000000  ...  0.333000  0.333000  0.000000
    0.333000  0.333000  0.000000  ...  0.000000  0.500000  0.000000
    0.000000  0.500000  0.000000  ...  0.000000  0.000000  0.000000

 Generated   128 points on each line segment, for a total of    384 k-points:

 Following reciprocal coordinates:
            Coordinates               Weight
  0.000000  0.000000  0.000000      0.002604
  0.002622  0.002622  0.000000      0.002604
  0.005244  0.005244  0.000000      0.002604
  0.007866  0.007866  0.000000      0.002604
  0.010488  0.010488  0.000000      0.002604
  0.013110  0.013110  0.000000      0.002604
  0.015732  0.015732  0.000000      0.002604
  0.018354  0.018354  0.000000      0.002604
  0.020976  0.020976  0.000000      0.002604
  0.023598  0.023598  0.000000      0.002604
  0.026220  0.026220  0.000000      0.002604
  0.028843  0.028843  0.000000      0.002604
  0.031465  0.031465  0.000000      0.002604
  0.034087  0.034087  0.000000      0.002604
  0.036709  0.036709  0.000000      0.002604
  0.039331  0.039331  0.000000      0.002604
  0.041953  0.041953  0.000000      0.002604
  0.044575  0.044575  0.000000      0.002604
  0.047197  0.047197  0.000000      0.002604
  0.049819  0.049819  0.000000      0.002604
  0.052441  0.052441  0.000000      0.002604
  0.055063  0.055063  0.000000      0.002604
  0.057685  0.057685  0.000000      0.002604
  0.060307  0.060307  0.000000      0.002604
  0.062929  0.062929  0.000000      0.002604
  0.065551  0.065551  0.000000      0.002604
  0.068173  0.068173  0.000000      0.002604
  0.070795  0.070795  0.000000      0.002604
  0.073417  0.073417  0.000000      0.002604
  0.076039  0.076039  0.000000      0.002604
  0.078661  0.078661  0.000000      0.002604
  0.081283  0.081283  0.000000      0.002604
  0.083906  0.083906  0.000000      0.002604
  0.086528  0.086528  0.000000      0.002604
  0.089150  0.089150  0.000000      0.002604
  0.091772  0.091772  0.000000      0.002604
  0.094394  0.094394  0.000000      0.002604
  0.097016  0.097016  0.000000      0.002604
  0.099638  0.099638  0.000000      0.002604
  0.102260  0.102260  0.000000      0.002604
  0.104882  0.104882  0.000000      0.002604
  0.107504  0.107504  0.000000      0.002604
  0.110126  0.110126  0.000000      0.002604
  0.112748  0.112748  0.000000      0.002604
  0.115370  0.115370  0.000000      0.002604
  0.117992  0.117992  0.000000      0.002604
  0.120614  0.120614  0.000000      0.002604
  0.123236  0.123236  0.000000      0.002604
  0.125858  0.125858  0.000000      0.002604
  0.128480  0.128480  0.000000      0.002604
  0.131102  0.131102  0.000000      0.002604
  0.133724  0.133724  0.000000      0.002604
  0.136346  0.136346  0.000000      0.002604
  0.138969  0.138969  0.000000      0.002604
  0.141591  0.141591  0.000000      0.002604
  0.144213  0.144213  0.000000      0.002604
  0.146835  0.146835  0.000000      0.002604
  0.149457  0.149457  0.000000      0.002604
  0.152079  0.152079  0.000000      0.002604
  0.154701  0.154701  0.000000      0.002604
[...]
  0.000000  0.055118  0.000000      0.002604
  0.000000  0.051181  0.000000      0.002604
  0.000000  0.047244  0.000000      0.002604
  0.000000  0.043307  0.000000      0.002604
  0.000000  0.039370  0.000000      0.002604
  0.000000  0.035433  0.000000      0.002604
  0.000000  0.031496  0.000000      0.002604
  0.000000  0.027559  0.000000      0.002604
  0.000000  0.023622  0.000000      0.002604
  0.000000  0.019685  0.000000      0.002604
  0.000000  0.015748  0.000000      0.002604
  0.000000  0.011811  0.000000      0.002604
  0.000000  0.007874  0.000000      0.002604
  0.000000  0.003937  0.000000      0.002604
  0.000000  0.000000  0.000000      0.002604

 Following cartesian coordinates:
            Coordinates               Weight
  0.000000  0.000000  0.000000      0.002604
 -0.000000  0.001118  0.000000      0.002604
 -0.000000  0.002236  0.000000      0.002604
  0.000000  0.003354  0.000000      0.002604
 -0.000000  0.004473  0.000000      0.002604
 -0.000000  0.005591  0.000000      0.002604
  0.000000  0.006709  0.000000      0.002604
 -0.000000  0.007827  0.000000      0.002604
 -0.000000  0.008945  0.000000      0.002604
 -0.000000  0.010063  0.000000      0.002604
 -0.000000  0.011181  0.000000      0.002604
 -0.000000  0.012300  0.000000      0.002604
  0.000000  0.013418  0.000000      0.002604
 -0.000000  0.014536  0.000000      0.002604
 -0.000000  0.015654  0.000000      0.002604
 -0.000000  0.016772  0.000000      0.002604
 -0.000000  0.017890  0.000000      0.002604
 -0.000000  0.019008  0.000000      0.002604
 -0.000000  0.020127  0.000000      0.002604
 -0.000000  0.021245  0.000000      0.002604
 -0.000000  0.022363  0.000000      0.002604
 -0.000000  0.023481  0.000000      0.002604
 -0.000000  0.024599  0.000000      0.002604
  0.000000  0.025717  0.000000      0.002604
  0.000000  0.026835  0.000000      0.002604
 -0.000000  0.027954  0.000000      0.002604
 -0.000000  0.029072  0.000000      0.002604
 -0.000000  0.030190  0.000000      0.002604
 -0.000000  0.031308  0.000000      0.002604
 -0.000000  0.032426  0.000000      0.002604
 -0.000000  0.033544  0.000000      0.002604
 -0.000000  0.034662  0.000000      0.002604
 -0.000000  0.035781  0.000000      0.002604
 -0.000000  0.036899  0.000000      0.002604
 -0.000000  0.038017  0.000000      0.002604
 -0.000000  0.039135  0.000000      0.002604
 -0.000000  0.040253  0.000000      0.002604
 -0.000000  0.041371  0.000000      0.002604
 -0.000000  0.042489  0.000000      0.002604
 -0.000000  0.043608  0.000000      0.002604
 -0.000000  0.044726  0.000000      0.002604
 -0.000000  0.045844  0.000000      0.002604
 -0.000000  0.046962  0.000000      0.002604
 -0.000000  0.048080  0.000000      0.002604
 -0.000000  0.049198  0.000000      0.002604
  0.000000  0.050316  0.000000      0.002604
  0.000000  0.051435  0.000000      0.002604
  0.000000  0.052553  0.000000      0.002604
  0.000000  0.053671  0.000000      0.002604
 -0.000000  0.054789  0.000000      0.002604
 -0.000000  0.055907  0.000000      0.002604
 -0.000000  0.057025  0.000000      0.002604
 -0.000000  0.058143  0.000000      0.002604
 -0.000000  0.059262  0.000000      0.002604
 -0.000000  0.060380  0.000000      0.002604
 -0.000000  0.061498  0.000000      0.002604
 -0.000000  0.062616  0.000000      0.002604
 -0.000000  0.063734  0.000000      0.002604
 -0.000000  0.064852  0.000000      0.002604
 -0.000000  0.065970  0.000000      0.002604
[...]
 -0.006785  0.011752  0.000000      0.002604
 -0.006301  0.010913  0.000000      0.002604
 -0.005816  0.010073  0.000000      0.002604
 -0.005331  0.009234  0.000000      0.002604
 -0.004847  0.008394  0.000000      0.002604
 -0.004362  0.007555  0.000000      0.002604
 -0.003877  0.006716  0.000000      0.002604
 -0.003393  0.005876  0.000000      0.002604
 -0.002908  0.005037  0.000000      0.002604
 -0.002423  0.004197  0.000000      0.002604
 -0.001939  0.003358  0.000000      0.002604
 -0.001454  0.002518  0.000000      0.002604
 -0.000969  0.001679  0.000000      0.002604
 -0.000485  0.000839  0.000000      0.002604
 -0.000000  0.000000  0.000000      0.002604

 SYSTEM =  BS
 POSCAR =  B4C3 with lattice parameter 4.690

 Startparameter for this run:
   NWRITE =      2    write-flag & timer
   PREC   = accura    normal or accurate (medium, high low for compatibility)
   ISTART =      0    job   : 0-new  1-cont  2-samecut
   ICHARG =     11    charge: 1-file 2-atom 10-const
   ISPIN  =      1    spin polarized calculation?
   LNONCOLLINEAR =      F non collinear calculations
   LSORBIT =      F    spin-orbit coupling
   INIWAV =      1    electr: 0-lowe 1-rand  2-diag
   LASPH  =      F    aspherical Exc in radial PAW
 Electronic Relaxation 1
   ENCUT  =  450.0 eV  33.07 Ry    5.75 a.u.   8.11  8.11 25.95*2*pi/ulx,y,z
   ENINI  =  450.0     initial cutoff
[...]
   2.75172183  1.60175081  1.50438248
  -2.74027960  1.60173665  1.50441075

 k-point   1 :   0.0000 0.0000 0.0000  plane waves:    6189
 k-point   2 :   0.0026 0.0026 0.0000  plane waves:    6189
 k-point   3 :   0.0052 0.0052 0.0000  plane waves:    6189
 k-point   4 :   0.0079 0.0079 0.0000  plane waves:    6183
 k-point   5 :   0.0105 0.0105 0.0000  plane waves:    6183
 k-point   6 :   0.0131 0.0131 0.0000  plane waves:    6183
 k-point   7 :   0.0157 0.0157 0.0000  plane waves:    6173
 k-point   8 :   0.0184 0.0184 0.0000  plane waves:    6171
 k-point   9 :   0.0210 0.0210 0.0000  plane waves:    6165
 k-point  10 :   0.0236 0.0236 0.0000  plane waves:    6163
 k-point  11 :   0.0262 0.0262 0.0000  plane waves:    6163
 k-point  12 :   0.0288 0.0288 0.0000  plane waves:    6163
 k-point  13 :   0.0315 0.0315 0.0000  plane waves:    6157
 k-point  14 :   0.0341 0.0341 0.0000  plane waves:    6157
 k-point  15 :   0.0367 0.0367 0.0000  plane waves:    6169
 k-point  16 :   0.0393 0.0393 0.0000  plane waves:    6171
 k-point  17 :   0.0420 0.0420 0.0000  plane waves:    6167
 k-point  18 :   0.0446 0.0446 0.0000  plane waves:    6165
 k-point  19 :   0.0472 0.0472 0.0000  plane waves:    6169
 k-point  20 :   0.0498 0.0498 0.0000  plane waves:    6169
 k-point  21 :   0.0524 0.0524 0.0000  plane waves:    6169
 k-point  22 :   0.0551 0.0551 0.0000  plane waves:    6169
 k-point  23 :   0.0577 0.0577 0.0000  plane waves:    6172
 k-point  24 :   0.0603 0.0603 0.0000  plane waves:    6172
 k-point  25 :   0.0629 0.0629 0.0000  plane waves:    6176
 k-point  26 :   0.0656 0.0656 0.0000  plane waves:    6174
 k-point  27 :   0.0682 0.0682 0.0000  plane waves:    6174
 k-point  28 :   0.0708 0.0708 0.0000  plane waves:    6170
 k-point  29 :   0.0734 0.0734 0.0000  plane waves:    6170
 k-point  30 :   0.0760 0.0760 0.0000  plane waves:    6170
 k-point  31 :   0.0787 0.0787 0.0000  plane waves:    6166
 k-point  32 :   0.0813 0.0813 0.0000  plane waves:    6168
 k-point  33 :   0.0839 0.0839 0.0000  plane waves:    6172
 k-point  34 :   0.0865 0.0865 0.0000  plane waves:    6166
 k-point  35 :   0.0891 0.0891 0.0000  plane waves:    6162
 k-point  36 :   0.0918 0.0918 0.0000  plane waves:    6158
 k-point  37 :   0.0944 0.0944 0.0000  plane waves:    6160
 k-point  38 :   0.0970 0.0970 0.0000  plane waves:    6160
 k-point  39 :   0.0996 0.0996 0.0000  plane waves:    6168
 k-point  40 :   0.1023 0.1023 0.0000  plane waves:    6168
 k-point  41 :   0.1049 0.1049 0.0000  plane waves:    6164
 k-point  42 :   0.1075 0.1075 0.0000  plane waves:    6164
 k-point  43 :   0.1101 0.1101 0.0000  plane waves:    6162
 k-point  44 :   0.1127 0.1127 0.0000  plane waves:    6168
 k-point  45 :   0.1154 0.1154 0.0000  plane waves:    6172
 k-point  46 :   0.1180 0.1180 0.0000  plane waves:    6172
 k-point  47 :   0.1206 0.1206 0.0000  plane waves:    6172
 k-point  48 :   0.1232 0.1232 0.0000  plane waves:    6170
 k-point  49 :   0.1259 0.1259 0.0000  plane waves:    6166
 k-point  50 :   0.1285 0.1285 0.0000  plane waves:    6166
 k-point  51 :   0.1311 0.1311 0.0000  plane waves:    6162
 k-point  52 :   0.1337 0.1337 0.0000  plane waves:    6162
 k-point  53 :   0.1363 0.1363 0.0000  plane waves:    6166
 k-point  54 :   0.1390 0.1390 0.0000  plane waves:    6174
 k-point  55 :   0.1416 0.1416 0.0000  plane waves:    6176
 k-point  56 :   0.1442 0.1442 0.0000  plane waves:    6176
 k-point  57 :   0.1468 0.1468 0.0000  plane waves:    6176
 k-point  58 :   0.1495 0.1495 0.0000  plane waves:    6176
 k-point  59 :   0.1521 0.1521 0.0000  plane waves:    6164
 k-point  60 :   0.1547 0.1547 0.0000  plane waves:    6160
[...]
 k-point 370 :   0.0000 0.0551 0.0000  plane waves:    6164
 k-point 371 :   0.0000 0.0512 0.0000  plane waves:    6168
 k-point 372 :   0.0000 0.0472 0.0000  plane waves:    6170
 k-point 373 :   0.0000 0.0433 0.0000  plane waves:    6166
 k-point 374 :   0.0000 0.0394 0.0000  plane waves:    6166
 k-point 375 :   0.0000 0.0354 0.0000  plane waves:    6158
 k-point 376 :   0.0000 0.0315 0.0000  plane waves:    6164
 k-point 377 :   0.0000 0.0276 0.0000  plane waves:    6168
 k-point 378 :   0.0000 0.0236 0.0000  plane waves:    6179
 k-point 379 :   0.0000 0.0197 0.0000  plane waves:    6179
 k-point 380 :   0.0000 0.0157 0.0000  plane waves:    6179
 k-point 381 :   0.0000 0.0118 0.0000  plane waves:    6183
 k-point 382 :   0.0000 0.0079 0.0000  plane waves:    6187
 k-point 383 :   0.0000 0.0039 0.0000  plane waves:    6197
 k-point 384 :   0.0000 0.0000 0.0000  plane waves:    6189

 maximum and minimum number of plane-waves per node :      6226     6144

 maximum number of plane-waves:      6226
 maximum index in each direction:
   IXMAX=    8   IYMAX=    8   IZMAX=   25
   IXMIN=   -8   IYMIN=   -8   IZMIN=  -25

 serial   3D FFT for wavefunctions
 parallel 3D FFT for charge:
    minimum data exchange during FFTs selected (reduces bandwidth)

 initial charge density was supplied:
 number of electron      24.0000000 magnetization
 keeping initial charge density in first step

 Maximum index for augmentation-charges          368 (set IRDMAX)

 First call to EWALD:  gamma=   0.269
 Maximum number of real-space cells 4x 4x 1
 Maximum number of reciprocal cells 2x 2x 6

--------------------------------------- Iteration      1(   1)  ---------------------------------------

 eigenvalue-minimisations  : 36864
 total energy-change (2. order) : 0.4129296E+02  (-0.9120661E+03)
 number of electron      24.0000000 magnetization
 augmentation part       24.0000000 magnetization

 Free energy of the ion-electron system (eV)
  alpha Z        PSCENC =        12.87923804
  Ewald energy   TEWEN  =      2035.29425873
  -Hartree energ DENC   =     -2651.55150696
  -exchange      EXHF   =         0.00000000
  -V(xc)+E(xc)   XCENC  =        70.47676900
  PAW double counting   =      2428.95887681    -2427.94709447
  entropy T*S    EENTRO =        -0.01220800
  eigenvalues    EBANDS =      -152.91376450
  atomic energy  EATOM  =       726.10839270
  Solvation  Ediel_sol  =         0.00000000
  free energy    TOTEN  =        41.29296135 eV

  energy without entropy =       41.30516935  energy(sigma->0) =       41.29906535

[...]

 eigenvalue-minimisations  : 56448
 total energy-change (2. order) :-0.9164468E+02  (-0.8912648E+02)
 number of electron      24.0000000 magnetization
 augmentation part       24.0000000 magnetization

[...]

--------------------------------------- Iteration      1(   6)  ---------------------------------------

 eigenvalue-minimisations  : 69168
 total energy-change (2. order) :-0.4324647E-08  (-0.4334591E-08)
 number of electron      24.0000000 magnetization
 augmentation part       24.0000000 magnetization

 Free energy of the ion-electron system (eV)
  alpha Z        PSCENC =        12.87923804
  Ewald energy   TEWEN  =      2035.29425873
  -Hartree energ DENC   =     -2651.55150696
  -exchange      EXHF   =         0.00000000
  -V(xc)+E(xc)   XCENC  =        70.47676900
  PAW double counting   =      2428.95887681    -2427.94709447
  entropy T*S    EENTRO =        -0.00000000
  eigenvalues    EBANDS =      -246.03823405
  atomic energy  EATOM  =       726.10839270
  Solvation  Ediel_sol  =         0.00000000
  free energy    TOTEN  =       -51.81930019 eV

  energy without entropy =      -51.81930019  energy(sigma->0) =      -51.81930019

 average (electrostatic) potential at core
  the test charge radii are     0.7672  0.6991
  (the norm of the test charge is              1.0000)
       1 -37.3506       2 -35.5376       3 -35.5373       4 -35.5376       5 -56.9387
       6 -56.9387       7 -56.9388

 E-fermi :  -2.4215     XC(G=0):  -2.8883     alpha+bet : -2.6060

 Fermi energy:        -2.4214872146

 k-point     1 :       0.0000    0.0000    0.0000
  band No.  band energies     occupation
      1     -19.7368      2.00000
      2     -15.4939      2.00000
      3     -15.4939      2.00000
      4     -12.6059      2.00000
      5     -11.3070      2.00000
      6     -11.3070      2.00000
      7      -9.8594      2.00000
      8      -9.0927      2.00000
      9      -4.5763      2.00000
     10      -4.5760      2.00000
     11      -2.8561      2.00000
     12      -2.8559      2.00000
     13      -0.7395      0.00000
     14      -0.7395      0.00000
     15      -0.5911      0.00000
     16       1.2414      0.00000
     17       1.8078      0.00000
     18       2.4450      0.00000
     19       2.6792      0.00000
     20       2.6793      0.00000
     21       4.2188      0.00000
     22       4.9712      0.00000
     23       7.1406      0.00000
     24       7.2228      0.00000
     25       7.7022      0.00000
     26       8.2618      0.00000
     27       8.2620      0.00000
     28       8.2933      0.00000
     29       8.9391      0.00000
     30       9.2455      0.00000
     31       9.2456      0.00000
     32       9.4216      0.00000
     33       9.4711      0.00000
     34      10.4082      0.00000
     35      10.5955      0.00000
     36      10.5955      0.00000
     37      10.7088      0.00000
     38      10.7089      0.00000
     39      10.8881      0.00000
     40      10.8951      0.00000
     41      10.8951      0.00000
     42      11.0506      0.00000
     43      11.0506      0.00000
     44      11.2276      0.00000
     45      11.5507      0.00000
     46      11.5694      0.00000
     47      11.5694      0.00000
     48      11.6010      0.00000

[...]

 k-point   384 :       0.0000    0.0000    0.0000
  band No.  band energies     occupation
      1     -19.7368      2.00000
      2     -15.4939      2.00000
      3     -15.4939      2.00000
      4     -12.6059      2.00000
      5     -11.3070      2.00000
      6     -11.3070      2.00000
      7      -9.8594      2.00000
      8      -9.0927      2.00000
      9      -4.5763      2.00000
     10      -4.5760      2.00000
     11      -2.8561      2.00000
     12      -2.8559      2.00000
     13      -0.7395      0.00000
     14      -0.7395      0.00000
     15      -0.5911      0.00000
     16       1.2414      0.00000
     17       1.8078      0.00000
     18       2.4450      0.00000
     19       2.6792      0.00000
     20       2.6793      0.00000
     21       4.2188      0.00000
     22       4.9712      0.00000
     23       7.1406      0.00000
     24       7.2228      0.00000
     25       7.7022      0.00000
     26       8.2618      0.00000
     27       8.2620      0.00000
     28       8.2933      0.00000
     29       8.9391      0.00000
     30       9.2455      0.00000
     31       9.2456      0.00000
     32       9.4216      0.00000
     33       9.4711      0.00000
     34      10.4082      0.00000
     35      10.5955      0.00000
     36      10.5955      0.00000
     37      10.7088      0.00000
     38      10.7089      0.00000
     39      10.8881      0.00000
     40      10.8951      0.00000
     41      10.8951      0.00000
     42      11.0506      0.00000
     43      11.0506      0.00000
     44      11.2276      0.00000
     45      11.5507      0.00000
     46      11.5694      0.00000
     47      11.5694      0.00000
     48      11.6010      0.00000

 soft charge-density along one line, spin component           1
         0         1         2         3         4         5         6         7         8         9
 total charge-density along one line

------------------------ aborting loop because EDIFF is reached ----------------------------------------

 total charge

# of ion       s       p       d       tot
    1        0.691   1.416   0.000   2.107
    2        0.691   1.318   0.000   2.009
    3        0.712   1.349   0.000   2.061
    4        0.719   1.352   0.000   2.071
    5        0.856   1.789   0.000   2.646
    6        0.828   1.811   0.000   2.639
    7        0.850   1.798   0.000   2.648
tot          5.347  10.833   0.000  16.179

         DFTD3 V3.0 Rev 1
 IVDW         = 12
 DF pbe
 parameters
 VDW_S6       =    1.0000
 VDW_S8       =    0.7875
 VDW_A1       =    0.4289
 VDW_A2       =    4.4407
 k1-k3        =   16.0000    1.3333   -4.0000
 VDW_RADIUS   =   50.2022 A
 VDW_CNRADIUS =   21.1671 A
 Edisp (eV)   -0.52724

 E6    (eV) :    -0.3479
 E8    (eV) :    -0.1793
 % E8        : 34.01

  FORCE on cell =-STRESS in cart. coord.  units (eV):
  Direction    XX          YY          ZZ          XY          YZ          ZX
  Alpha Z    12.87924    12.87924    12.87924
  Ewald    2711.23721  2711.22565 -3387.16952    -0.00217    -0.00655     0.00082
  Hartree  2614.87827  2616.10728 -2576.67704    -0.82786     0.10265     0.11188
  E(xc)     -83.07511   -83.08667   -85.82374     0.01158    -0.00017    -0.00144
  Local   -5544.31598 -5546.58726  5699.68354     1.94327    -0.36301    -0.41374
  n-local   -14.49737   -16.09456   -16.28517     0.94280    -0.01115    -0.00593
  augment    -0.90884    -0.91194    -0.74474     0.00312     0.00233     0.00232
  Kinetic   303.78164   309.48402   355.16178    -3.03707     0.22860     0.30167
  Fock        0.00000     0.00000     0.00000     0.00000     0.00000     0.00000
  vdW        -0.54156    -0.54156    -0.00673     0.00000    -0.00000     0.00000
  Total      -0.56250     2.47421     1.01762    -0.96634    -0.04729    -0.00442
  in kB      -3.15402    13.87332     5.70596    -5.41844    -0.26519    -0.02478

 VOLUME and BASIS-vectors are now :
  energy-cutoff  :      450.00
  volume of cell :      285.74
      direct lattice vectors                 reciprocal lattice vectors
     4.061659000  2.345000000  0.000000000     0.123102407  0.213219616  0.000000000
    -4.061659000  2.345000000  0.000000000    -0.123102407  0.213219616  0.000000000
     0.000000000  0.000000000 15.000000000     0.000000000  0.000000000  0.066666667

  length of vectors
     4.689999876  4.689999876 15.000000000     0.246204808  0.246204808  0.066666667

 FORCES acting on ions
    electron-ion (+dipol)            ewald-force                    non-local-force                 convergence-correction
   -.370E+00 -.395E+00 -.918E+02   -.146E-02 0.384E-02 0.932E+02   -.112E-01 -.264E-01 -.142E+01   0.264E+00 0.264E+00 0.187E+00
   -.215E+02 -.125E+02 0.196E+02   0.236E+02 0.136E+02 -.204E+02   -.302E+01 -.168E+01 0.424E+00   0.236E+00 0.163E+00 0.155E+00
   0.204E+02 -.120E+02 0.200E+02   -.236E+02 0.136E+02 -.204E+02   0.242E+01 -.188E+01 0.315E+00   0.603E-01 -.108E+00 0.588E-01
   -.637E-01 0.236E+02 0.200E+02   0.516E-03 -.272E+02 -.204E+02   -.468E+00 0.299E+01 0.273E+00   -.868E-01 0.839E-01 0.480E-01
   -.537E+00 -.364E+02 0.907E+01   0.107E-03 0.439E+02 -.107E+02   0.237E+00 -.614E+01 0.176E+01   0.614E+00 -.677E+00 -.184E-01
   0.345E+02 0.198E+02 0.726E+01   -.380E+02 -.220E+02 -.107E+02   0.617E+01 0.352E+01 0.269E+01   -.123E+01 -.559E+00 0.498E+00
   -.323E+02 0.179E+02 0.879E+01   0.380E+02 -.220E+02 -.107E+02   -.537E+01 0.333E+01 0.194E+01   0.339E-01 0.840E+00 0.369E-01
   0.173E+00 -.975E-01 -.701E+01   -.142E-13 0.249E-13 -.178E-14   -.400E-01 0.103E+00 0.598E+01   -.108E+00 0.758E-02 0.966E+00

 POSITION                                       TOTAL-FORCE (eV/Angst)
      0.00574      0.01631      1.80398        -0.121784     -0.155242      0.194543
      1.43853      0.84358      1.46255        -0.770301     -0.459488     -0.183136
     -1.42708      0.84356      1.46254        -0.671708     -0.345070     -0.005659
      0.00570      3.05185      1.46258        -0.621937     -0.540918     -0.005448
      0.00571      1.53549      1.50424         0.310972      0.654446      0.100607
      2.75172      1.60175      1.50438         1.424813      0.784725     -0.210352
     -2.74028      1.60174      1.50441         0.449946      0.061547      0.109446
    total drift:                                0.024638      0.013486     -0.063951

  FREE ENERGIE OF THE ION-ELECTRON SYSTEM (eV)
  free  energy   TOTEN  =       -52.34653598 eV

  energy  without entropy=      -52.34653598  energy(sigma->0) =      -52.34653598

 stress matrix after NEB project (eV)
     -0.56250     -0.96634     -0.00442
     -0.96634      2.47421     -0.04729
     -0.00442     -0.04729      1.01762
  FORCES: max atom, RMS     1.640163    0.895067
  FORCE total and by dimension    2.368124    1.424813
  Stress total and by dimension    3.057096    2.474214
 writing wavefunctions

 total charge

# of ion       s       p       d       tot
    1        0.691   1.416   0.000   2.107
    2        0.691   1.318   0.000   2.009
    3        0.712   1.349   0.000   2.061
    4        0.719   1.352   0.000   2.071
    5        0.856   1.789   0.000   2.646
    6        0.828   1.811   0.000   2.639
    7        0.850   1.798   0.000   2.648
tot          5.347  10.833   0.000  16.179