 vasp.6.3.2 27Jun22 (build May 31 2023 12:07:17) complex

 executed on             LinuxIFC date 2024.09.08  19:51:46

 INCAR:
   SYSTEM = Dielectric_function
   ISTART = 1
   ICHARG = 2
   PREC = Normal
   ENCUT = 450
   ALGO = Damped
   EDIFF = 1E-4
   NEDOS = 1000
   OMEGAMAX = 24
   ISMEAR = 0
   SIGMA = 0.01
   GGA = PE
   LHFCALC = .TRUE.
   AEXX = 0.25
   HFSCREEN = 0.2
   LOPTICS = .TRUE.
   CSHIFT = 0.1
   NBANDS = 128
   LREAL = .FALSE.

 POTCAR:    PAW_PBE C 08Apr2002
|           W    W    AA    RRRRR   N    N  II  N    N   GGGG   !!!           |
|           W    W   A  A   R    R  NN   N  II  NN   N  G    G  !!!           |
|           W    W  A    A  R    R  N N  N  II  N N  N  G       !!!           |
|           W WW W  AAAAAA  RRRRR   N  N N  II  N  N N  G  GGG   !            |
|           WW  WW  A    A  R   R   N   NN  II  N   NN  G    G                |
|           W    W  A    A  R    R  N    N  II  N    N   GGGG   !!!           |
|     For optimal performance we recommend to set                             |
|       NCORE = 2 up to number-of-cores-per-socket                            |
|     This setting can greatly improve the performance of VASP for DFT.       |
|     The default, NCORE=1 might be grossly inefficient on modern             |
|     multi-core architectures or massively parallel machines. Do your        |
|     Unfortunately you need to use the default for GW and RPA                |
|     calculations (for HF NCORE is supported but not extensively tested      |
|     yet).                                                                   |

   TITEL  = PAW_PBE C 08Apr2002
   POMASS =   12.011; ZVAL   =    4.000    mass and valenz
   ENMAX  =  400.000; ENMIN  =  300.000 eV

  PAW_PBE C 08Apr2002                   :

 POSCAR: Graphene with lattice parameter 2.467
  positions in direct lattice
  velocities in cartesian coordinates
 exchange correlation table for  LEXCH =        8
   RHO(1)=    0.500       N(1)  =     2000
   RHO(2)=  100.500       N(2)  =     4000

 ion  position               nearest neighbor table
   1  0.333  0.667  0.100-   2 1.42   2 1.42   2 1.42
   2  0.667  0.333  0.100-   1 1.42   1 1.42   1 1.42

  LATTYP: Found a hexagonal cell.
 ALAT       =     2.4669998518
 C/A-ratio  =     6.0802597897

  Lattice vectors:

 A1 = (   2.1364845000,   1.2335000000,   0.0000000000)
 A2 = (  -2.1364845000,   1.2335000000,   0.0000000000)
 A3 = (   0.0000000000,   0.0000000000,  15.0000000000)

Analysis of symmetry for initial positions (statically):
 Subroutine PRICEL returns:
 Original cell was already a primitive cell.

 Routine SETGRP: Setting up the symmetry group for a
 hexagonal supercell.

 Subroutine GETGRP returns: Found 24 space group operations
 (whereof 12 operations were pure point group operations)
 out of a pool of 24 trial point group operations.

The static configuration has the point symmetry C_6v.
 The point group associated with its full space group is D_6h.

Analysis of symmetry for dynamics (positions and initial velocities):
 Subroutine PRICEL returns:
 Original cell was already a primitive cell.

 Routine SETGRP: Setting up the symmetry group for a
 hexagonal supercell.

 Subroutine GETGRP returns: Found 24 space group operations
 (whereof 12 operations were pure point group operations)
 out of a pool of 24 trial point group operations.

The dynamic configuration has the point symmetry C_6v.
 The point group associated with its full space group is D_6h.

 Subroutine INISYM returns: Found 24 space group operations
 (whereof 12 operations are pure point group operations),
 and found     1 'primitive' translations

                                     Primitive cell

  volume of cell :      79.0606

  direct lattice vectors                    reciprocal lattice vectors
     2.136484500  1.233500000  0.000000000     0.234029313  0.405350628  0.000000000
    -2.136484500  1.233500000  0.000000000    -0.234029313  0.405350628  0.000000000
     0.000000000  0.000000000 15.000000000     0.000000000  0.000000000  0.066666667

  length of vectors
     2.466999852  2.466999852 15.000000000     0.468058598  0.468058598  0.066666667

  position of ions in fractional coordinates (direct lattice)
     0.333333000  0.666666000  0.100000000
     0.666666000  0.333333000  0.100000000

  ion indices of the primitive-cell ions
   primitive index   ion index
                 1           1
                 2           2

 KPOINTS: k-points

Automatic generation of k-mesh.
 Grid dimensions read from file:
 generate k-points for:   33   33    1

 Generating k-lattice:

  Cartesian coordinates                     Fractional coordinates (reciprocal lattice)
     0.007091797  0.012283352  0.000000000     0.030303030 -0.000000000  0.000000000
    -0.007091797  0.012283352  0.000000000    -0.000000000  0.030303030  0.000000000
     0.000000000  0.000000000  0.066666667     0.000000000  0.000000000  1.000000000

  Length of vectors
     0.014183594  0.014183594  0.066666667

  Shift w.r.t. Gamma in fractional coordinates (k-lattice)
     0.000000000  0.000000000  0.000000000

 Subroutine IBZKPT returns following result:

 Found    108 irreducible k-points:

 Following reciprocal coordinates:
            Coordinates               Weight
  0.000000  0.000000  0.000000      1.000000
  0.030303 -0.000000  0.000000      6.000000
  0.060606 -0.000000  0.000000      6.000000
  0.090909 -0.000000  0.000000      6.000000
  0.121212 -0.000000  0.000000      6.000000
  0.151515  0.000000  0.000000      6.000000
  0.181818 -0.000000  0.000000      6.000000
  0.212121  0.000000  0.000000      6.000000
  0.242424 -0.000000  0.000000      6.000000
  0.272727 -0.000000  0.000000      6.000000
  0.303030 -0.000000  0.000000      6.000000
  0.333333  0.000000  0.000000      6.000000
  0.363636 -0.000000  0.000000      6.000000
  0.393939 -0.000000  0.000000      6.000000
  0.424242  0.000000  0.000000      6.000000
  0.454545  0.000000  0.000000      6.000000
  0.484848 -0.000000  0.000000      6.000000
  0.030303  0.030303  0.000000      6.000000
  0.060606  0.030303  0.000000     12.000000
  0.090909  0.030303  0.000000     12.000000
  0.121212  0.030303  0.000000     12.000000
  0.151515  0.030303  0.000000     12.000000
  0.181818  0.030303  0.000000     12.000000
  0.212121  0.030303  0.000000     12.000000
  0.242424  0.030303  0.000000     12.000000
  0.272727  0.030303  0.000000     12.000000
  0.303030  0.030303  0.000000     12.000000
  0.333333  0.030303  0.000000     12.000000
  0.363636  0.030303  0.000000     12.000000
  0.393939  0.030303  0.000000     12.000000
  0.424242  0.030303  0.000000     12.000000
  0.454545  0.030303  0.000000     12.000000
  0.484848  0.030303  0.000000      6.000000
  0.060606  0.060606  0.000000      6.000000
  0.090909  0.060606  0.000000     12.000000
  0.121212  0.060606  0.000000     12.000000
  0.151515  0.060606  0.000000     12.000000
  0.181818  0.060606  0.000000     12.000000
  0.212121  0.060606  0.000000     12.000000
  0.242424  0.060606  0.000000     12.000000
  0.272727  0.060606  0.000000     12.000000
  0.303030  0.060606  0.000000     12.000000
  0.333333  0.060606  0.000000     12.000000
  0.363636  0.060606  0.000000     12.000000
  0.393939  0.060606  0.000000     12.000000
  0.424242  0.060606  0.000000     12.000000
  0.454545  0.060606  0.000000     12.000000
  0.090909  0.090909  0.000000      6.000000
  0.121212  0.090909  0.000000     12.000000
  0.151515  0.090909  0.000000     12.000000
  0.181818  0.090909  0.000000     12.000000
  0.212121  0.090909  0.000000     12.000000
  0.242424  0.090909  0.000000     12.000000
  0.272727  0.090909  0.000000     12.000000
  0.303030  0.090909  0.000000     12.000000
  0.333333  0.090909  0.000000     12.000000
  0.363636  0.090909  0.000000     12.000000
  0.393939  0.090909  0.000000     12.000000
  0.424242  0.090909  0.000000     12.000000
  0.454545  0.090909  0.000000      6.000000
[...]
  0.333333  0.212121  0.000000     12.000000
  0.363636  0.212121  0.000000     12.000000
  0.393939  0.212121  0.000000      6.000000
  0.242424  0.242424  0.000000      6.000000
  0.272727  0.242424  0.000000     12.000000
  0.303030  0.242424  0.000000     12.000000
  0.333333  0.242424  0.000000     12.000000
  0.363636  0.242424  0.000000     12.000000
  0.272727  0.272727  0.000000      6.000000
  0.303030  0.272727  0.000000     12.000000
  0.333333  0.272727  0.000000     12.000000
  0.363636  0.272727  0.000000      6.000000
  0.303030  0.303030  0.000000      6.000000
  0.333333  0.303030  0.000000     12.000000
  0.333333  0.333333  0.000000      2.000000

 Following cartesian coordinates:
            Coordinates               Weight
  0.000000  0.000000  0.000000      1.000000
  0.007092  0.012283  0.000000      6.000000
  0.014184  0.024567  0.000000      6.000000
  0.021275  0.036850  0.000000      6.000000
  0.028367  0.049133  0.000000      6.000000
  0.035459  0.061417  0.000000      6.000000
  0.042551  0.073700  0.000000      6.000000
  0.049643  0.085983  0.000000      6.000000
  0.056734  0.098267  0.000000      6.000000
  0.063826  0.110550  0.000000      6.000000
  0.070918  0.122834  0.000000      6.000000
  0.078010  0.135117  0.000000      6.000000
  0.085102  0.147400  0.000000      6.000000
  0.092193  0.159684  0.000000      6.000000
  0.099285  0.171967  0.000000      6.000000
  0.106377  0.184250  0.000000      6.000000
  0.113469  0.196534  0.000000      6.000000
  0.000000  0.024567  0.000000      6.000000
  0.007092  0.036850  0.000000     12.000000
  0.014184  0.049133  0.000000     12.000000
  0.021275  0.061417  0.000000     12.000000
  0.028367  0.073700  0.000000     12.000000
  0.035459  0.085983  0.000000     12.000000
  0.042551  0.098267  0.000000     12.000000
  0.049643  0.110550  0.000000     12.000000
  0.056734  0.122834  0.000000     12.000000
  0.063826  0.135117  0.000000     12.000000
  0.070918  0.147400  0.000000     12.000000
  0.078010  0.159684  0.000000     12.000000
  0.085102  0.171967  0.000000     12.000000
  0.092193  0.184250  0.000000     12.000000
  0.099285  0.196534  0.000000     12.000000
  0.106377  0.208817  0.000000      6.000000
  0.000000  0.049133  0.000000      6.000000
  0.007092  0.061417  0.000000     12.000000
  0.014184  0.073700  0.000000     12.000000
  0.021275  0.085983  0.000000     12.000000
  0.028367  0.098267  0.000000     12.000000
  0.035459  0.110550  0.000000     12.000000
  0.042551  0.122834  0.000000     12.000000
  0.049643  0.135117  0.000000     12.000000
  0.056734  0.147400  0.000000     12.000000
  0.063826  0.159684  0.000000     12.000000
  0.070918  0.171967  0.000000     12.000000
  0.078010  0.184250  0.000000     12.000000
  0.085102  0.196534  0.000000     12.000000
  0.092193  0.208817  0.000000     12.000000
  0.000000  0.073700  0.000000      6.000000
  0.007092  0.085983  0.000000     12.000000
  0.014184  0.098267  0.000000     12.000000
  0.021275  0.110550  0.000000     12.000000
  0.028367  0.122834  0.000000     12.000000
  0.035459  0.135117  0.000000     12.000000
  0.042551  0.147400  0.000000     12.000000
[...]
 fock_all_dblbuf                       534.977535          88
 m_bcast_z                             509.139160      239312
 depsum_two_bands_rholm_trace_m        440.311213    20817324
 w1_copy                               286.760444     3205305
 gemm                                  220.475484      180542
 fock_set_fsg                          202.721958          33
 bg_ppotrf_trtri                        88.890866       12528
 waitred                                84.118915       19008
 waitgth                                83.525693       19008
 pdssyex_zheevx                         70.430386        1944
 eddav                                  64.481421          70
 fftwav                                 58.215083     3145375
 fock_charge_mu                         43.038743    20817324
 proj1                                  31.443255     1241743
 orth1                                  22.862962       90537
 pw_charge_trace_mu                     22.113975    20817324
 racc0mu_hf                             16.778277    20817324
 ggemm                                  15.260799       31951
 crexp_mul_wave                         14.798709     2483486
 elmin_all                              14.670292           1
 wfinit                                 12.633368          15
 depsum_two_bands_rholm_trace_m         10.094269    20817324
 apply_gfac_weight                       9.434342      588060
 eddiag_lr                               9.395487          45
 fock_ace_acc_apply                      8.870603       31951
 edwav                                   8.775124          17
 fock_bck                                8.200371       19008
 spher                                   8.177956         256
 m_bcast_d                               6.636070       63924
 orth1_nosubindex                        5.042015       12528
 fock_force                              4.374343           1
 phase                                   4.115153       40865
 lrf_rphi0                               3.639578          45
 vhamil                                  3.521204       33895
 redis_pw                                2.178748      293699
 dllmm_trans_eccp_nl_fock                2.025459      352836
 wrk_allocate                            1.945225           1
 spher_der                               1.938245          90
 fftwav_mpi                              1.918432     3145375
 fft_and_gather                          1.900249       19116
 lincom_slice                            1.456843       12528
 w1_daxpy                                1.442351       31951
 work_mul_crexp                          1.280324      180542
 redis_proj                              1.236373      264532
 reduce                                  1.187332       19008
 eccp_nl_fock                            1.081300     3528360
 w1_dot                                  0.782130        7260
 pw_charge                               0.646802       19602
 apply_precond                           0.608177       24691
 eccp                                    0.601101       12768
 distri_slice                            0.539790       12528
 lincom                                  0.514034        3780
 soft_charge_sym                         0.420929          18
 hamiltmu                                0.407766       31951
 fftext_mpi                              0.361515       62191
 orth1_distri                            0.337630       12528
 vnlac0                                  0.323939       90271
 hamiltmu_commutator                     0.314005        9396
 m_alltoallv_z                           0.313977         334
 lrf_commutator                          0.283756          45
 recon_slice                             0.249152       12528
 kinhamil                                0.182151       33895
 dfftw_execute                           0.157078         891
 overl1                                  0.113468       79039
 ggaall_grid                             0.090582          20
 newband                                 0.068947       39211
 fock_ace_construct                      0.067414          70
 orthch                                  0.065403          32
 densta                                  0.059226          22
 w1_dscal                                0.056570        1836
 lincom_distri                           0.053415       12528
 contraction                             0.048688      352836
 overl                                   0.048066       76622
 w1_projall                              0.044000       24691
 potlok                                  0.023806          19
 setup_precond                           0.021879        7260
 fftbas_plan_mpi                         0.020564         297
 m_sum_g                                 0.020005       25056
 brgrid                                  0.019010           1
 fornl                                   0.017231           1
 eddiag                                  0.016336           1
 choleski                                0.015749       12528
 projxyz                                 0.015616         108
 depsum_sym                              0.013929          18
 truncate_high_frequency_w1              0.009734       39211
 inisym                                  0.005724           1
 overl1_c                                0.004553        9396
 proj                                    0.002819        3132
 proall                                  0.002725          15
 force_and_stress                        0.002630           1
 hamilt_local                            0.002336        1944
 redis_pw_all                            0.001481          17
 map_scatter                             0.001467         334
 map_gather                              0.001272         334
 fewald                                  0.001135           1
 augmentation_charge                     0.000784          18
 setdij_                                 0.000699          27
 rspher_all                              0.000583           4
 map_backward                            0.000348         312
 map_forward                             0.000340         282
 set_charge                              0.000324          18
 set_dd_paw                              0.000316          20
 fftbrc_mpi                              0.000186         297
 pothar                                  0.000148          19
 fft_gq                                  0.000141          18
 crpa_reader                             0.000032           1
 forloc                                  0.000031           1
 forhar                                  0.000029           1
 shift_bands_between_low_high            0.000026         108
 rsp                                     0.000022           1
 redis_pw_over_bands                     0.000013          18
 wrk_deallocate                          0.000011           1
 stufak                                  0.000011           1
 rcp                                     0.000011           1
 posmap                                  0.000009           2
 FERMAT_RAZOR                            0.000007           1
 fordep                                  0.000004           1
 potlok_metagga                          0.000001          18
 set_dd_magatom                          0.000001           2
 vectorpot                               0.000001           1
 rotate_active_occupied_orbital          0.000001           1
  summed up times    1798864.97971892

 Accumulative profile

 total_time                        1798864.979719           1
 fft3d_mpi                         1157183.072686    ********
 fft3d                             1154717.434864    ********
 fock_all_dblbuf                    607376.124854          88
 fock_fwd                           584224.602677       19008
 vhamil_trace                       126450.252734    ********
 elmin_all                          122175.398879           1
 edwav                              115294.079242          17
 fock_charge_mu                      73006.005083    20817324
 pw_charge_trace                     67116.628955    ********
 pw_charge_trace_mu                  61850.862189    20817324
 pw_charge_trace_mu_                 61828.748214    20817324
 apply_gfac_exchange                 44386.048037    ********
 apply_gfac                          40190.358373    ********
 lr_optic                            38613.881378           1
 apply_gfac_qder                     38463.259025    ********
 m_sumb_d                            34198.653288      230459
 fock_set_gfac_vkpt                  30122.922451    51514056
 rpro1_hf                            24949.728392    ********
 racc0_hf                            23974.450073    ********
 reduce                              19962.775197       19008
 m_ireduce_z_to                      19961.587865     2433024
 depsum_two_bands_rholm_trace        11747.568442    ********
 depsum_two_bands_rholm_trace_       10245.035073    ********
 calc_dllmm_trans                     9004.981983    ********
 rpromu_hf                            8476.186912    21170160
 racc0mu_hf                           6972.316614    20817324
 racc0mu_hf_                          6955.538337    20817324
 eddiag                               6861.872234           1
 eddav                                6714.793857          70
 depsum_two_bands_rholm_trace_m       4139.787536    20817324
 depsum_two_bands_rholm_trace_m       4129.693267    20817324
 lapack                               3582.327722       31951
 phaser_hf                            2353.747568    51514056
 fftext_mpi                           2077.303317       62191
 overl_fock                           1972.686886    ********
 fftwav_mpi                           1847.087462     3145375
 fftwav                               1845.169030     3145375
 m_alltoall_d                         1555.602319      558231
 fft_and_gather                       1515.520458       19116
 redis_pw                             1327.888888      293699
 m_ibcast_z_from                      1320.597517     2435724
 fock_bck                              978.592769       19008
 fock_ace_acc_apply                    540.163847       31951
 m_bcast_z                             509.139160      239312
 lrf_rphi0                             344.484561          45
 force_and_stress                      330.372918           1
 fock_force                            330.261922           1
 eddiag_lr                             326.807031          45
 w1_copy                               286.760444     3205305
 fock_ace_construct                    233.995750          70
 redis_proj                            231.128552      264532
 vnlac0                                222.079746       90271
 gemm                                  220.475484      180542
 fock_set_fsg                          202.721958          33
 m_sum_g                                99.197267       25056
 choleski                               88.906615       12528
 bg_ppotrf_trtri                        88.890866       12528
 orthch                                 88.058117          32
 waitred                                84.118915       19008
 waitgth                                83.525693       19008
 pdssyex_zheevx                         70.430386        1944
 orth1_distri                           57.705378       12528
 lincom_distri                          49.170734       12528
 newband                                49.004723       39211
 proj1                                  46.241963     1241743
 wfinit                                 34.158561          15
 orth1                                  22.862962       90537
 hamiltmu                               19.851064       31951
 ggemm                                  15.260799       31951
 crexp_mul_wave                         14.798709     2483486
 kinhamil                               12.715928       33895
 lrf_commutator                          9.882825          45
 apply_gfac_weight                       9.434342      588060
 dllmm_trans_eccp_nl_fock                8.821057      352836
 spher                                   8.177956         256
 wrk_allocate                            8.000582           1
 spher_der                               7.705859          90
 redis_pw_over_bands                     7.490728          18
 redis_pw_all                            7.490715          17
 m_bcast_d                               6.636070       63924
 orth1_nosubindex                        5.042015       12528
 w1_projall                              4.778471       24691
 set_charge                              4.322707          18
 soft_charge_sym                         4.222087          18
 phase                                   4.115153       40865
 vhamil                                  3.521204       33895
 hamiltmu_commutator                     2.668405        9396
 lincom_slice                            1.456843       12528
 w1_daxpy                                1.442351       31951
 work_mul_crexp                          1.280324      180542
 eccp_nl_fock                            1.081300     3528360
 w1_dot                                  0.782130        7260
 pw_charge                               0.646802       19602
 proall                                  0.626785          15
 apply_precond                           0.608177       24691
 eccp                                    0.601101       12768
 distri_slice                            0.539790       12528
 set_dd_paw                              0.519009          20
 lincom                                  0.514034        3780
 hamilt_local                            0.498593        1944
 fftbrc_mpi                              0.495232         297
 fftbas_plan_mpi                         0.495046         297
 potlok                                  0.475576          19
 proj                                    0.328509        3132
 m_alltoallv_z                           0.313977         334
 densta                                  0.313252          22
 recon_slice                             0.249152       12528
 map_backward                            0.187003         312
 dfftw_execute                           0.157078         891
 map_forward                             0.130402         282
 overl1                                  0.113468       79039
 fft_gq                                  0.095158          18
 ggaall_grid                             0.090582          20
 depsum_sym                              0.077164          18
 w1_dscal                                0.056570        1836
 fornl                                   0.053170           1
 contraction                             0.048688      352836
 overl                                   0.048066       76622
 augmentation_charge                     0.023132          18
 setup_precond                           0.021879        7260
 brgrid                                  0.019010           1
 projxyz                                 0.015631         108
 setdij_                                 0.010787          27
 truncate_high_frequency_w1              0.009734       39211
 pothar                                  0.008898          19
 inisym                                  0.005733           1
 overl1_c                                0.004553        9396
 fewald                                  0.003381           1
 map_scatter                             0.001467         334
 map_gather                              0.001272         334
 forhar                                  0.000599           1
 rspher_all                              0.000583           4
 fordep                                  0.000558           1
 forloc                                  0.000309           1
 crpa_reader                             0.000032           1
 shift_bands_between_low_high            0.000026         108
 rsp                                     0.000022           1
 wrk_deallocate                          0.000011           1
 rcp                                     0.000011           1
 stufak                                  0.000011           1
 posmap                                  0.000009           2
 FERMAT_RAZOR                            0.000007           1
 potlok_metagga                          0.000001          18
 set_dd_magatom                          0.000001           2
 vectorpot                               0.000001           1
 rotate_active_occupied_orbital          0.000001           1

Profiling took ********************  0.004315  0.004245 seconds
Profiling took ********** seconds