 vasp.6.4.2 20Jul23 (build Aug 23 2023 19:13:21) complex

 executed on             LinuxIFC date 2023.11.16  22:15:17

 INCAR:
   SYSTEM = BS_HSE06
   ISTART = 1
   ICHARG = 2
   PREC = Accurate
   LORBIT = 11
   ENCUT = 450
   ALGO = Damped
   TIME = 0.4
   NELM = 200
   EDIFF = 1E-6
   EDIFFG = -1E-3
   SIGMA = 0.1
   ISMEAR = 0
   IBRION = -1
   GGA = PE
   LHFCALC = .TRUE.
   AEXX = 0.25
   HFSCREEN = 0.2
   NKRED = 1

 POTCAR:    PAW_PBE C 08Apr2002
 POTCAR:    PAW_PBE C 08Apr2002
   VRHFIN =C: s2p2

   TITEL  = PAW_PBE C 08Apr2002
   POMASS =   12.011; ZVAL   =    4.000    mass and valenz
   ENMAX  =  400.000; ENMIN  =  300.000 eV

  PAW_PBE C 08Apr2002                   :

 POSCAR: Graphene with lattice parameter 2.467
  positions in direct lattice
  velocities in cartesian coordinates
 exchange correlation table for  LEXCH =        8
   RHO(1)=    0.500       N(1)  =     2000
   RHO(2)=  100.500       N(2)  =     4000

 VTST: version 4.1, (05/19/21)

 CHAIN: initializing optimizer

 OPT: Using VASP Dynamics algorithm
 CHAIN: Read ICHAIN            0

 POSCAR: Graphene with lattice parameter 2.467
  positions in direct lattice
  velocities in cartesian coordinates

 ion  position               nearest neighbor table
   1  0.333  0.667  0.100-   2 1.42   2 1.42   2 1.42
   2  0.667  0.333  0.100-   1 1.42   1 1.42   1 1.42

  LATTYP: Found a hexagonal cell.
 ALAT       =     2.4669998518
 C/A-ratio  =     6.0802597897

  Lattice vectors:

 A1 = (   2.1364845000,   1.2335000000,   0.0000000000)
 A2 = (  -2.1364845000,   1.2335000000,   0.0000000000)
 A3 = (   0.0000000000,   0.0000000000,  15.0000000000)

Analysis of symmetry for initial positions (statically):
 Subroutine PRICEL returns:
 Original cell was already a primitive cell.

 Routine SETGRP: Setting up the symmetry group for a
 hexagonal supercell.

 Subroutine GETGRP returns: Found 24 space group operations
 (whereof 12 operations were pure point group operations)
 out of a pool of 24 trial point group operations.

The static configuration has the point symmetry C_6v.
 The point group associated with its full space group is D_6h.

Analysis of symmetry for dynamics (positions and initial velocities):
 Subroutine PRICEL returns:
 Original cell was already a primitive cell.

 Routine SETGRP: Setting up the symmetry group for a
 hexagonal supercell.

 Subroutine GETGRP returns: Found 24 space group operations
 (whereof 12 operations were pure point group operations)
 out of a pool of 24 trial point group operations.

The dynamic configuration has the point symmetry C_6v.
 The point group associated with its full space group is D_6h.

 Subroutine INISYM returns: Found 24 space group operations
 (whereof 12 operations are pure point group operations),
 and found     1 'primitive' translations

                                     Primitive cell

  volume of cell :      79.0606

  direct lattice vectors                    reciprocal lattice vectors
     2.136484500  1.233500000  0.000000000     0.234029313  0.405350628  0.000000000
    -2.136484500  1.233500000  0.000000000    -0.234029313  0.405350628  0.000000000
     0.000000000  0.000000000 15.000000000     0.000000000  0.000000000  0.066666667

  length of vectors
     2.466999852  2.466999852 15.000000000     0.468058598  0.468058598  0.066666667

  position of ions in fractional coordinates (direct lattice)
     0.333333000  0.666666000  0.100000000
     0.666666000  0.333333000  0.100000000

  ion indices of the primitive-cell ions
   primitive index   ion index
                 1           1
                 2           2

 KPOINTS: k-points

Automatic generation of k-mesh.
 Grid dimensions read from file:
 generate k-points for:   33   33    1

 Generating k-lattice:

  Cartesian coordinates                     Fractional coordinates (reciprocal lattice)
     0.007091797  0.012283352  0.000000000     0.030303030 -0.000000000  0.000000000
    -0.007091797  0.012283352  0.000000000    -0.000000000  0.030303030  0.000000000
     0.000000000  0.000000000  0.066666667     0.000000000  0.000000000  1.000000000

  Length of vectors
     0.014183594  0.014183594  0.066666667

  Shift w.r.t. Gamma in fractional coordinates (k-lattice)
     0.000000000  0.000000000  0.000000000

 Subroutine IBZKPT returns following result:

 Found    108 irreducible k-points:

 Following reciprocal coordinates:
            Coordinates               Weight
  0.000000  0.000000  0.000000      1.000000
  0.030303 -0.000000  0.000000      6.000000
  0.060606 -0.000000  0.000000      6.000000
  0.090909 -0.000000  0.000000      6.000000
  0.121212 -0.000000  0.000000      6.000000
  0.151515  0.000000  0.000000      6.000000
  0.181818 -0.000000  0.000000      6.000000
  0.212121 -0.000000  0.000000      6.000000
  0.242424 -0.000000  0.000000      6.000000
  0.272727  0.000000  0.000000      6.000000
  0.303030 -0.000000  0.000000      6.000000
  0.333333 -0.000000  0.000000      6.000000
  0.363636 -0.000000  0.000000      6.000000
  0.393939  0.000000  0.000000      6.000000
  0.424242 -0.000000  0.000000      6.000000
  0.454545 -0.000000  0.000000      6.000000
  0.484848 -0.000000  0.000000      6.000000
  0.030303  0.030303  0.000000      6.000000
  0.060606  0.030303  0.000000     12.000000
  0.090909  0.030303  0.000000     12.000000
  0.121212  0.030303  0.000000     12.000000
  0.151515  0.030303  0.000000     12.000000
  0.181818  0.030303  0.000000     12.000000
  0.212121  0.030303  0.000000     12.000000
  0.242424  0.030303  0.000000     12.000000
  0.272727  0.030303  0.000000     12.000000
  0.303030  0.030303  0.000000     12.000000
  0.333333  0.030303  0.000000     12.000000
  0.363636  0.030303  0.000000     12.000000
  0.393939  0.030303  0.000000     12.000000
  0.424242  0.030303  0.000000     12.000000
  0.454545  0.030303  0.000000     12.000000
  0.484848  0.030303  0.000000      6.000000
  0.060606  0.060606  0.000000      6.000000
  0.090909  0.060606  0.000000     12.000000
  0.121212  0.060606  0.000000     12.000000
  0.151515  0.060606  0.000000     12.000000
  0.181818  0.060606  0.000000     12.000000
  0.212121  0.060606  0.000000     12.000000
  0.242424  0.060606  0.000000     12.000000
  0.272727  0.060606  0.000000     12.000000
  0.303030  0.060606  0.000000     12.000000
  0.333333  0.060606  0.000000     12.000000
  0.363636  0.060606  0.000000     12.000000
  0.393939  0.060606  0.000000     12.000000
  0.424242  0.060606  0.000000     12.000000
  0.454545  0.060606  0.000000     12.000000
  0.090909  0.090909  0.000000      6.000000
  0.121212  0.090909  0.000000     12.000000
  0.151515  0.090909  0.000000     12.000000
  0.181818  0.090909  0.000000     12.000000
  0.212121  0.090909  0.000000     12.000000
  0.242424  0.090909  0.000000     12.000000
  0.272727  0.090909  0.000000     12.000000
  0.303030  0.090909  0.000000     12.000000
  0.333333  0.090909  0.000000     12.000000
  0.363636  0.090909  0.000000     12.000000
  0.393939  0.090909  0.000000     12.000000
  0.424242  0.090909  0.000000     12.000000
  0.454545  0.090909  0.000000      6.000000
[...]
  0.333333  0.212121  0.000000     12.000000
  0.363636  0.212121  0.000000     12.000000
  0.393939  0.212121  0.000000      6.000000
  0.242424  0.242424  0.000000      6.000000
  0.272727  0.242424  0.000000     12.000000
  0.303030  0.242424  0.000000     12.000000
  0.333333  0.242424  0.000000     12.000000
  0.363636  0.242424  0.000000     12.000000
  0.272727  0.272727  0.000000      6.000000
  0.303030  0.272727  0.000000     12.000000
  0.333333  0.272727  0.000000     12.000000
  0.363636  0.272727  0.000000      6.000000
  0.303030  0.303030  0.000000      6.000000
  0.333333  0.303030  0.000000     12.000000
  0.333333  0.333333  0.000000      2.000000

 Following cartesian coordinates:
            Coordinates               Weight
  0.000000  0.000000  0.000000      1.000000
  0.007092  0.012283  0.000000      6.000000
  0.014184  0.024567  0.000000      6.000000
  0.021275  0.036850  0.000000      6.000000
  0.028367  0.049133  0.000000      6.000000
  0.035459  0.061417  0.000000      6.000000
  0.042551  0.073700  0.000000      6.000000
  0.049643  0.085983  0.000000      6.000000
  0.056734  0.098267  0.000000      6.000000
  0.063826  0.110550  0.000000      6.000000
  0.070918  0.122834  0.000000      6.000000
  0.078010  0.135117  0.000000      6.000000
  0.085102  0.147400  0.000000      6.000000
  0.092193  0.159684  0.000000      6.000000
  0.099285  0.171967  0.000000      6.000000
  0.106377  0.184250  0.000000      6.000000
  0.113469  0.196534  0.000000      6.000000
 -0.000000  0.024567  0.000000      6.000000
  0.007092  0.036850  0.000000     12.000000
  0.014184  0.049133  0.000000     12.000000
  0.021275  0.061417  0.000000     12.000000
  0.028367  0.073700  0.000000     12.000000
  0.035459  0.085983  0.000000     12.000000
  0.042551  0.098267  0.000000     12.000000
  0.049643  0.110550  0.000000     12.000000
  0.056734  0.122834  0.000000     12.000000
  0.063826  0.135117  0.000000     12.000000
  0.070918  0.147400  0.000000     12.000000
  0.078010  0.159684  0.000000     12.000000
  0.085102  0.171967  0.000000     12.000000
  0.092193  0.184250  0.000000     12.000000
  0.099285  0.196534  0.000000     12.000000
  0.106377  0.208817  0.000000      6.000000
 -0.000000  0.049133  0.000000      6.000000
  0.007092  0.061417  0.000000     12.000000
  0.014184  0.073700  0.000000     12.000000
  0.021275  0.085983  0.000000     12.000000
  0.028367  0.098267  0.000000     12.000000
  0.035459  0.110550  0.000000     12.000000
  0.042551  0.122834  0.000000     12.000000
  0.049643  0.135117  0.000000     12.000000
  0.056734  0.147400  0.000000     12.000000
  0.063826  0.159684  0.000000     12.000000
  0.070918  0.171967  0.000000     12.000000
  0.078010  0.184250  0.000000     12.000000
  0.085102  0.196534  0.000000     12.000000
  0.092193  0.208817  0.000000     12.000000
 -0.000000  0.073700  0.000000      6.000000
  0.007092  0.085983  0.000000     12.000000
  0.014184  0.098267  0.000000     12.000000
  0.021275  0.110550  0.000000     12.000000
  0.028367  0.122834  0.000000     12.000000
  0.035459  0.135117  0.000000     12.000000
  0.042551  0.147400  0.000000     12.000000
  0.049643  0.159684  0.000000     12.000000
  0.056734  0.171967  0.000000     12.000000
  0.063826  0.184250  0.000000     12.000000
  0.070918  0.196534  0.000000     12.000000
  0.078010  0.208817  0.000000     12.000000
  0.085102  0.221100  0.000000      6.000000
[...]
  0.028367  0.221100  0.000000     12.000000
  0.035459  0.233384  0.000000     12.000000
  0.042551  0.245667  0.000000      6.000000
  0.000000  0.196534  0.000000      6.000000
  0.007092  0.208817  0.000000     12.000000
  0.014184  0.221100  0.000000     12.000000
  0.021275  0.233384  0.000000     12.000000
  0.028367  0.245667  0.000000     12.000000
 -0.000000  0.221100  0.000000      6.000000
  0.007092  0.233384  0.000000     12.000000
  0.014184  0.245667  0.000000     12.000000
  0.021275  0.257950  0.000000      6.000000
 -0.000000  0.245667  0.000000      6.000000
[...]
   0.12121212  0.06060606  0.00000000       0.011
   0.15151515  0.06060606  0.00000000       0.011
   0.18181818  0.06060606  0.00000000       0.011
   0.21212121  0.06060606  0.00000000       0.011
   0.24242424  0.06060606  0.00000000       0.011
   0.27272727  0.06060606  0.00000000       0.011
   0.30303030  0.06060606  0.00000000       0.011
   0.33333333  0.06060606  0.00000000       0.011
   0.36363636  0.06060606  0.00000000       0.011
   0.39393939  0.06060606  0.00000000       0.011
   0.42424242  0.06060606  0.00000000       0.011
   0.45454545  0.06060606  0.00000000       0.011
   0.09090909  0.09090909  0.00000000       0.006
   0.12121212  0.09090909  0.00000000       0.011
   0.15151515  0.09090909  0.00000000       0.011
   0.18181818  0.09090909  0.00000000       0.011
   0.21212121  0.09090909  0.00000000       0.011
   0.24242424  0.09090909  0.00000000       0.011
   0.27272727  0.09090909  0.00000000       0.011
   0.30303030  0.09090909  0.00000000       0.011
   0.33333333  0.09090909  0.00000000       0.011
   0.36363636  0.09090909  0.00000000       0.011
   0.39393939  0.09090909  0.00000000       0.011
   0.42424242  0.09090909  0.00000000       0.011
   0.45454545  0.09090909  0.00000000       0.006
[...]
   0.33333333  0.21212121  0.00000000       0.011
   0.36363636  0.21212121  0.00000000       0.011
   0.39393939  0.21212121  0.00000000       0.006
   0.24242424  0.24242424  0.00000000       0.006
   0.27272727  0.24242424  0.00000000       0.011
   0.30303030  0.24242424  0.00000000       0.011
   0.33333333  0.24242424  0.00000000       0.011
   0.36363636  0.24242424  0.00000000       0.011
   0.27272727  0.27272727  0.00000000       0.006
   0.30303030  0.27272727  0.00000000       0.011
   0.33333333  0.27272727  0.00000000       0.011
   0.36363636  0.27272727  0.00000000       0.006
   0.30303030  0.30303030  0.00000000       0.006
   0.33333333  0.30303030  0.00000000       0.011
   0.33333333  0.33333333  0.00000000       0.002

 position of ions in fractional coordinates (direct lattice)
   0.33333300  0.66666600  0.10000000
   0.66666600  0.33333300  0.10000000

 position of ions in cartesian coordinates  (Angst):
  -0.71216079  1.23349877  1.50000000
   0.71216079  1.23349877  1.50000000

 k-point   1 :   0.0000 0.0000 0.0000  plane waves:    1749
 k-point   2 :   0.0303-0.0000 0.0000  plane waves:    1741
 k-point   3 :   0.0606-0.0000 0.0000  plane waves:    1743
 k-point   4 :   0.0909-0.0000 0.0000  plane waves:    1731
 k-point   5 :   0.1212-0.0000 0.0000  plane waves:    1717
 k-point   6 :   0.1515 0.0000 0.0000  plane waves:    1723
 k-point   7 :   0.1818-0.0000 0.0000  plane waves:    1717
 k-point   8 :   0.2121-0.0000 0.0000  plane waves:    1721
 k-point   9 :   0.2424-0.0000 0.0000  plane waves:    1713
 k-point  10 :   0.2727 0.0000 0.0000  plane waves:    1699
 k-point  11 :   0.3030-0.0000 0.0000  plane waves:    1693
 k-point  12 :   0.3333-0.0000 0.0000  plane waves:    1704
 k-point  13 :   0.3636-0.0000 0.0000  plane waves:    1704
 k-point  14 :   0.3939 0.0000 0.0000  plane waves:    1702
 k-point  15 :   0.4242-0.0000 0.0000  plane waves:    1720
 k-point  16 :   0.4545-0.0000 0.0000  plane waves:    1722
 k-point  17 :   0.4848-0.0000 0.0000  plane waves:    1724
 k-point  18 :   0.0303 0.0303 0.0000  plane waves:    1743
 k-point  19 :   0.0606 0.0303 0.0000  plane waves:    1731
 k-point  20 :   0.0909 0.0303 0.0000  plane waves:    1728
 k-point  21 :   0.1212 0.0303 0.0000  plane waves:    1720
 k-point  22 :   0.1515 0.0303 0.0000  plane waves:    1725
 k-point  23 :   0.1818 0.0303 0.0000  plane waves:    1717
 k-point  24 :   0.2121 0.0303 0.0000  plane waves:    1712
 k-point  25 :   0.2424 0.0303 0.0000  plane waves:    1703
 k-point  26 :   0.2727 0.0303 0.0000  plane waves:    1694
 k-point  27 :   0.3030 0.0303 0.0000  plane waves:    1705
 k-point  28 :   0.3333 0.0303 0.0000  plane waves:    1709
 k-point  29 :   0.3636 0.0303 0.0000  plane waves:    1714
 k-point  30 :   0.3939 0.0303 0.0000  plane waves:    1710
 k-point  31 :   0.4242 0.0303 0.0000  plane waves:    1720
 k-point  32 :   0.4545 0.0303 0.0000  plane waves:    1712
 k-point  33 :   0.4848 0.0303 0.0000  plane waves:    1712
 k-point  34 :   0.0606 0.0606 0.0000  plane waves:    1721
 k-point  35 :   0.0909 0.0606 0.0000  plane waves:    1720
 k-point  36 :   0.1212 0.0606 0.0000  plane waves:    1715
 k-point  37 :   0.1515 0.0606 0.0000  plane waves:    1710
 k-point  38 :   0.1818 0.0606 0.0000  plane waves:    1714
 k-point  39 :   0.2121 0.0606 0.0000  plane waves:    1703
 k-point  40 :   0.2424 0.0606 0.0000  plane waves:    1709
 k-point  41 :   0.2727 0.0606 0.0000  plane waves:    1698
 k-point  42 :   0.3030 0.0606 0.0000  plane waves:    1709
 k-point  43 :   0.3333 0.0606 0.0000  plane waves:    1719
 k-point  44 :   0.3636 0.0606 0.0000  plane waves:    1715
 k-point  45 :   0.3939 0.0606 0.0000  plane waves:    1710
 k-point  46 :   0.4242 0.0606 0.0000  plane waves:    1714
 k-point  47 :   0.4545 0.0606 0.0000  plane waves:    1716
 k-point  48 :   0.0909 0.0909 0.0000  plane waves:    1723
 k-point  49 :   0.1212 0.0909 0.0000  plane waves:    1719
 k-point  50 :   0.1515 0.0909 0.0000  plane waves:    1711
 k-point  51 :   0.1818 0.0909 0.0000  plane waves:    1709
 k-point  52 :   0.2121 0.0909 0.0000  plane waves:    1707
 k-point  53 :   0.2424 0.0909 0.0000  plane waves:    1707
 k-point  54 :   0.2727 0.0909 0.0000  plane waves:    1709
 k-point  55 :   0.3030 0.0909 0.0000  plane waves:    1715
 k-point  56 :   0.3333 0.0909 0.0000  plane waves:    1719
 k-point  57 :   0.3636 0.0909 0.0000  plane waves:    1717
 k-point  58 :   0.3939 0.0909 0.0000  plane waves:    1709
 k-point  59 :   0.4242 0.0909 0.0000  plane waves:    1707
 k-point  60 :   0.4545 0.0909 0.0000  plane waves:    1718
[...]
 k-point  94 :   0.3333 0.2121 0.0000  plane waves:    1714
 k-point  95 :   0.3636 0.2121 0.0000  plane waves:    1714
 k-point  96 :   0.3939 0.2121 0.0000  plane waves:    1720
 k-point  97 :   0.2424 0.2424 0.0000  plane waves:    1702
 k-point  98 :   0.2727 0.2424 0.0000  plane waves:    1699
 k-point  99 :   0.3030 0.2424 0.0000  plane waves:    1706
 k-point 100 :   0.3333 0.2424 0.0000  plane waves:    1704
 k-point 101 :   0.3636 0.2424 0.0000  plane waves:    1708
 k-point 102 :   0.2727 0.2727 0.0000  plane waves:    1696
 k-point 103 :   0.3030 0.2727 0.0000  plane waves:    1710
 k-point 104 :   0.3333 0.2727 0.0000  plane waves:    1710
 k-point 105 :   0.3636 0.2727 0.0000  plane waves:    1716
 k-point 106 :   0.3030 0.3030 0.0000  plane waves:    1712
 k-point 107 :   0.3333 0.3030 0.0000  plane waves:    1712
 k-point 108 :   0.3333 0.3333 0.0000  plane waves:    1710

 maximum and minimum number of plane-waves per node :      1749     1693

 maximum number of plane-waves:      1749
 maximum index in each direction:
   IXMAX=    4   IYMAX=    4   IZMAX=   25
   IXMIN=   -4   IYMIN=   -4   IZMIN=  -25

 serial   3D FFT for wavefunctions
 parallel 3D FFT for charge:
    minimum data exchange during FFTs selected (reduces bandwidth)

 FFT grid for exact exchange (Hartree Fock)
  NGX = 14; NGY = 14; NGZ = 80

 Radii for the augmentation spheres in the non-local exchange
 for species   1 augmentation radius   0.874 (default was   0.699)
       energy cutoff for augmentation   1800.0
 Maximum index for augmentation-charges in exchange          558
  SETUP_FOCK is finished

 Broyden mixing: mesh for mixing (old mesh)
   NGX =  9   NGY =  9   NGZ = 51
  (NGX  = 36   NGY  = 36   NGZ  =216)
  gives a total of   4131 points

 initial charge density was supplied:
 charge density of overlapping atoms calculated
 number of electron       8.0000000 magnetization
 charge density for first step will be calculated from the start-wavefunctions

 Maximum index for augmentation-charges            0 (set IRDMAX)

 First call to EWALD:  gamma=   0.413
 Maximum number of real-space cells 5x 5x 1
 Maximum number of reciprocal cells 2x 2x 8

--------------------------------------- Ionic step        1  -------------------------------------------

--------------------------------------- Iteration      1(   1)  ---------------------------------------

 eigenvalue-minimisations  : 15552
 total energy-change (2. order) :-0.4322469E+02  (-0.4451334E+03)
 number of electron       8.0000000 magnetization
 augmentation part        8.0000000 magnetization

 Free energy of the ion-electron system (eV)
  alpha Z        PSCENC =         4.15613880
  Ewald energy   TEWEN  =       835.74592742
  -Hartree energ DENC   =     -1054.63223210
  -exchange      EXHF   =         0.00000000
  -V(xc)+E(xc)   XCENC  =        26.35432790
  PAW double counting   =       217.04409276     -263.28656513
  entropy T*S    EENTRO =        -0.00014426
  eigenvalues    EBANDS =       -99.40102172
  atomic energy  EATOM  =       290.79478791
  free energy    TOTEN  =       -43.22468841 eV

  energy without entropy =      -43.22454415  energy(sigma->0) =      -43.22461628
  exchange ACFDT corr.  =         0.00000000  see jH, gK, PRB 81, 115126

[...]

 eigenvalue-minimisations  : 20736
 total energy-change (2. order) : 0.4797066E+02  (-0.8729993E-01)
 number of electron       7.9999997 magnetization
 augmentation part        0.2094785 magnetization

[...]

 eigenvalue-minimisations  :     0
 total energy-change (2. order) : 0.2124089E+01  (-0.4095532E+00)
 number of electron       7.9999998 magnetization
 augmentation part        0.2039869 magnetization

[...]

--------------------------------------- Iteration      1(  22)  ---------------------------------------

 eigenvalue-minimisations  :     0
 total energy-change (2. order) :-0.3791126E-06  (-0.1342371E-06)
 number of electron       7.9999998 magnetization
 augmentation part        0.1880244 magnetization

 Free energy of the ion-electron system (eV)
  alpha Z        PSCENC =         4.15613880
  Ewald energy   TEWEN  =       835.74592742
  -Hartree energ DENC   =     -1086.72008281
  -exchange      EXHF   =        18.01584043
  -V(xc)+E(xc)   XCENC  =        21.14644241
  PAW double counting   =       922.65104065     -923.53808932
  entropy T*S    EENTRO =        -0.00020723
  eigenvalues    EBANDS =      -103.45719853
  atomic energy  EATOM  =       290.79478791
  free energy    TOTEN  =       -21.20549304 eV

  energy without entropy =      -21.20528581  energy(sigma->0) =      -21.20538942
  exchange ACFDT corr.  =        -0.00001019  see jH, gK, PRB 81, 115126

  average scaling for gradient   1.4009

 average (electrostatic) potential at core
  the test charge radii are     0.6991
  (the norm of the test charge is              1.0000)
       1 -54.0330       2 -54.0330

 E-fermi :  -2.3273     XC(G=0):  -2.4137     alpha+bet : -2.5354

 Fermi energy:        -2.3272586487

 k-point     1 :       0.0000    0.0000    0.0000
  band No.  band energies     occupation
      1     -24.3886      2.00000
      2     -11.1933      2.00000
      3      -6.3415      2.00000
      4      -6.3414      2.00000
      5       1.1851      0.00000
      6       2.0387      0.00000
      7       2.5190      0.00000
      8       4.4440      0.00000
      9       5.2345      0.00000
     10       6.9187      0.00000
     11       6.9187      0.00000
     12       8.4186      0.00000
     13       9.4990      0.00000
     14      10.7309      0.00000
     15      11.4159      0.00000
     16      13.7992      0.00000
     17      15.2652      0.00000
     18      20.4406      0.00000
     19      21.1258      0.00000
     20      22.4497      0.00000
     21      26.9442      0.00000
     22      26.9442      0.00000
     23      27.5898      0.00000
     24      30.1926      0.00000
     25      30.1926      0.00000
     26      30.9833      0.00000
     27      31.9164      0.00000
     28      33.4588      0.00000
     29      33.4592      0.00000
     30      33.8835      0.00000
     31      33.8835      0.00000
     32      34.2603      0.00000
     33      34.4894      0.00000
     34      34.6270      0.00000
     35      35.2615      0.00000
     36      35.2635      0.00000
     37      35.3018      0.00000
     38      35.3158      0.00000
     39      35.3759      0.00000
     40      35.4120      0.00000
     41      35.4485      0.00000
     42      35.5254      0.00000
     43      35.5277      0.00000
     44      35.6297      0.00000
     45      36.6258      0.00000
     46      37.2752      0.00000
     47      37.7306      0.00000
     48      37.8328      0.00000

[...]

 k-point   108 :       0.3333    0.3333    0.0000
  band No.  band energies     occupation
      1     -16.8499      2.00000
      2     -16.8498      2.00000
      3     -14.4284      2.00000
      4      -2.3278      1.00015
      5      -2.3278      0.99985
      6       8.7967      0.00000
      7      11.2832      0.00000
      8      11.2832      0.00000
      9      11.6305      0.00000
     10      12.8669      0.00000
     11      12.8669      0.00000
     12      13.1875      0.00000
     13      13.1875      0.00000
     14      13.2900      0.00000
     15      13.6300      0.00000
     16      14.5070      0.00000
     17      14.5070      0.00000
     18      15.1798      0.00000
     19      15.2447      0.00000
     20      15.2447      0.00000
     21      16.3321      0.00000
     22      16.7820      0.00000
     23      16.7820      0.00000
     24      17.8670      0.00000
     25      19.1047      0.00000
     26      19.1047      0.00000
     27      20.6793      0.00000
     28      20.6793      0.00000
     29      20.7268      0.00000
     30      21.5404      0.00000
     31      24.3622      0.00000
     32      24.3622      0.00000
     33      24.6036      0.00000
     34      26.2458      0.00000
     35      26.2458      0.00000
     36      26.5316      0.00000
     37      26.9017      0.00000
     38      30.7536      0.00000
     39      30.7536      0.00000
     40      33.2663      0.00000
     41      33.2663      0.00000
     42      33.6276      0.00000
     43      33.8632      0.00000
     44      36.5373      0.00000
     45      36.5373      0.00000
     46      39.6405      0.00000
     47      41.3323      0.00000
     48      41.4208      0.00000

 soft charge-density along one line, spin component           1
         0         1         2         3         4         5         6         7         8         9
 total charge-density along one line

------------------------ aborting loop because EDIFF is reached ----------------------------------------

 total charge

# of ion       s       p       d       tot
    1        0.870   1.778   0.000   2.648
    2        0.870   1.778   0.000   2.648
tot          1.739   3.556   0.000   5.295

 VOLUME and BASIS-vectors are now :
  energy-cutoff  :      450.00
  volume of cell :       79.06
      direct lattice vectors                 reciprocal lattice vectors
     2.136484500  1.233500000  0.000000000     0.234029313  0.405350628  0.000000000
    -2.136484500  1.233500000  0.000000000    -0.234029313  0.405350628  0.000000000
     0.000000000  0.000000000 15.000000000     0.000000000  0.000000000  0.066666667

  length of vectors
     2.466999852  2.466999852 15.000000000     0.468058598  0.468058598  0.066666667

 FORCES acting on ions:
    Electron-Ion                     Ewald-Force                    Non-Local-Force
   -.117E-03 0.226E-03 0.244E-05   -.271E-03 0.289E-14 0.939E-15   0.486E-16 0.210E-16 -.655E-21
   0.117E-03 0.230E-03 0.243E-05   0.271E-03 0.665E-15 -.162E-21   -.546E-16 -.360E-16 -.443E-21
   0.400E-06 0.455E-03 0.700E-05   -.890E-15 0.355E-14 0.939E-15   -.607E-17 -.150E-16 -.110E-20

 POSITION                                       TOTAL-FORCE (eV/Angst)
     -0.71216      1.23350      1.50000        -0.000000      0.000000      0.000000
      0.71216      1.23350      1.50000         0.000000     -0.000000     -0.000000
    total drift:                                0.000000      0.000455      0.000007

  FREE ENERGIE OF THE ION-ELECTRON SYSTEM (eV)
  free  energy   TOTEN  =       -21.20549304 eV

  energy  without entropy=      -21.20528581  energy(sigma->0) =      -21.20538942

 stress matrix after NEB project (eV)
      0.00000      0.00000      0.00000
      0.00000      0.00000      0.00000
      0.00000      0.00000      0.00000
  FORCES: max atom, RMS     0.000000    0.000000
  FORCE total and by dimension    0.000000    0.000000
  Stress total and by dimension    0.000000    0.000000

[...]

 writing wavefunctions

 total charge

# of ion       s       p       d       tot
    1        0.870   1.778   0.000   2.648
    2        0.870   1.778   0.000   2.648
tot          1.739   3.556   0.000   5.295