 vasp.6.3.2 27Jun22 (build Dec 22 2022 13:13:19) complex

 executed on             LinuxIFC date 2024.03.05  01:22:50

 INCAR:
   SYSTEM = PDoS
   ISTART = 1
   ICHARG = 11
   PREC = Accurate
   LORBIT = 11
   NEDOS = 4000
   ENCUT = 450
   LCHARG = .FALSE.
   LWAVE = .FALSE.
   ALGO = Normal
   EDIFF = 1E-6
   EDIFFG = -1E-3
   SIGMA = 0.1
   ISMEAR = 0
   SYMPREC = 1E-6
   NSW = 0
   IBRION = -1
   POTIM = .5

 POTCAR:    PAW_PBE B 06Sep2000
 POTCAR:    PAW_PBE C 08Apr2002
 POTCAR:    PAW_PBE B 06Sep2000
   VRHFIN =B: s2p1

   TITEL  = PAW_PBE B 06Sep2000
   POMASS =   10.811; ZVAL   =    3.000    mass and valenz
   ENMAX  =  318.614; ENMIN  =  238.960 eV

   TITEL  = PAW_PBE C 08Apr2002
   POMASS =   12.011; ZVAL   =    4.000    mass and valenz
   ENMAX  =  400.000; ENMIN  =  300.000 eV

  PAW_PBE B 06Sep2000                   :
  PAW_PBE C 08Apr2002                   :

 POSCAR: Graphene-B4C3 Top with lattice parameter
  positions in direct lattice
  velocities in cartesian coordinates
 exchange correlation table for  LEXCH =        8
   RHO(1)=    0.500       N(1)  =     2000
   RHO(2)=  100.500       N(2)  =     4000

 VTST: version 4.2, (08/11/21)

 CHAIN: initializing optimizer

 OPT: Using VASP Dynamics algorithm
 CHAIN: Read ICHAIN            0

 POSCAR: Graphene-B4C3 Top with lattice parameter
  positions in direct lattice
  velocities in cartesian coordinates

 ion  position               nearest neighbor table
   1  0.004  0.003  0.102-   5 1.57   6 1.57   7 1.57   3 1.72   2 1.72   4 1.72
   2  0.359  0.003  0.101-   6 1.56   5 1.65   7 1.65   1 1.72
   3  0.004  0.358  0.101-   7 1.56   6 1.65   5 1.65   1 1.72
   4  0.649  0.648  0.101-   5 1.56   7 1.65   6 1.65   1 1.72
   5  0.328  0.326  0.101-   4 1.56   1 1.57   2 1.65   3 1.65
   6  0.681  0.003  0.101-   2 1.56   1 1.57   3 1.65   4 1.65
   7  0.004  0.679  0.101-   3 1.56   1 1.57   4 1.65   2 1.65
   8  0.000  0.500  0.335-   9 1.40  11 1.40  13 1.40
   9  0.167  0.333  0.335-   8 1.40  12 1.40  10 1.40
  10  0.000  0.000  0.335-  11 1.40   9 1.40  15 1.40
  11  0.167  0.833  0.335-  14 1.40   8 1.40  10 1.40
  12  0.500  0.500  0.335-  15 1.40   9 1.40  13 1.40
  13  0.667  0.333  0.335-  12 1.40   8 1.40  14 1.40
  14  0.500  0.000  0.335-  11 1.40  15 1.40  13 1.40
  15  0.667  0.833  0.335-  12 1.40  14 1.40  10 1.40

  LATTYP: Found a hexagonal cell.
 ALAT       =     4.8460000000
 C/A-ratio  =     3.0953363599

  Lattice vectors:

 A1 = (   4.1967591067,   2.4230000000,   0.0000000000)
 A2 = (  -4.1967591067,   2.4230000000,   0.0000000000)
 A3 = (   0.0000000000,   0.0000000000,  15.0000000000)

Analysis of symmetry for initial positions (statically):
 Subroutine PRICEL returns:
 Original cell was already a primitive cell.

 Routine SETGRP: Setting up the symmetry group for a
 hexagonal supercell.

 Subroutine GETGRP returns: Found  1 space group operations
 (whereof  1 operations were pure point group operations)
 out of a pool of 24 trial point group operations.

The static configuration has the point symmetry C_1 .

Analysis of symmetry for dynamics (positions and initial velocities):
 Subroutine PRICEL returns:
 Original cell was already a primitive cell.

 Routine SETGRP: Setting up the symmetry group for a
 hexagonal supercell.

 Subroutine GETGRP returns: Found  1 space group operations
 (whereof  1 operations were pure point group operations)
 out of a pool of 24 trial point group operations.

The dynamic configuration has the point symmetry C_1 .

 Subroutine INISYM returns: Found  1 space group operations
 (whereof  1 operations are pure point group operations),
 and found     1 'primitive' translations

                                     Primitive cell

  volume of cell :     305.0624

  direct lattice vectors                    reciprocal lattice vectors
     4.196759107  2.423000000  0.000000000     0.119139552  0.206355757  0.000000000
    -4.196759107  2.423000000  0.000000000    -0.119139552  0.206355757  0.000000000
     0.000000000  0.000000000 15.000000000     0.000000000  0.000000000  0.066666667

  length of vectors
     4.846000000  4.846000000 15.000000000     0.238279104  0.238279104  0.066666667

  position of ions in fractional coordinates (direct lattice)
     0.004056526  0.002697343  0.101501060
     0.359245494  0.002978704  0.100711409
     0.003767832  0.357599513  0.100712169
     0.649148177  0.647506274  0.100708602
     0.327784757  0.326144145  0.100730862
     0.680601878  0.002974890  0.100730542
     0.003770558  0.678959212  0.100727858
     0.000132595  0.500063036  0.335115331
     0.166783864  0.333452843  0.335150012
     0.000115386  0.000071038  0.335075930
     0.166825953  0.833402697  0.335153906
     0.500125878  0.500099855  0.335118110
     0.666781160  0.333405941  0.335013099
     0.500087443  0.000053650  0.335113676
     0.666733165  0.833358192  0.335150101

  ion indices of the primitive-cell ions
   primitive index   ion index
                 1           1
                 2           2
                 3           3
                 4           4
                 5           5
                 6           6
                 7           7
                 8           8
                 9           9
                10          10
                11          11
                12          12
                13          13
                14          14
                15          15

 KPOINTS: k-points

Automatic generation of k-mesh.
 Grid dimensions read from file:
 generate k-points for:   33   33    1

 Generating k-lattice:

  Cartesian coordinates                     Fractional coordinates (reciprocal lattice)
     0.003610289  0.006253205  0.000000000     0.030303030 -0.000000000  0.000000000
    -0.003610289  0.006253205  0.000000000    -0.000000000  0.030303030  0.000000000
     0.000000000  0.000000000  0.066666667     0.000000000  0.000000000  1.000000000

  Length of vectors
     0.007220579  0.007220579  0.066666667

  Shift w.r.t. Gamma in fractional coordinates (k-lattice)
     0.000000000  0.000000000  0.000000000

 Subroutine IBZKPT returns following result:

 Found    545 irreducible k-points:

 Following reciprocal coordinates:
            Coordinates               Weight
  0.000000  0.000000  0.000000      1.000000
  0.030303 -0.000000  0.000000      2.000000
 -0.000000  0.030303  0.000000      2.000000
 -0.030303  0.030303  0.000000      2.000000
  0.060606 -0.000000  0.000000      2.000000
 -0.000000  0.060606  0.000000      2.000000
 -0.060606  0.060606  0.000000      2.000000
  0.090909 -0.000000  0.000000      2.000000
  0.000000  0.090909  0.000000      2.000000
 -0.090909  0.090909  0.000000      2.000000
  0.121212 -0.000000  0.000000      2.000000
 -0.000000  0.121212  0.000000      2.000000
 -0.121212  0.121212  0.000000      2.000000
  0.151515  0.000000  0.000000      2.000000
  0.000000  0.151515  0.000000      2.000000
 -0.151515  0.151515  0.000000      2.000000
  0.181818  0.000000  0.000000      2.000000
  0.000000  0.181818  0.000000      2.000000
 -0.181818  0.181818  0.000000      2.000000
  0.212121  0.000000  0.000000      2.000000
  0.000000  0.212121  0.000000      2.000000
 -0.212121  0.212121  0.000000      2.000000
  0.242424  0.000000  0.000000      2.000000
 -0.000000  0.242424  0.000000      2.000000
 -0.242424  0.242424  0.000000      2.000000
  0.272727  0.000000  0.000000      2.000000
  0.000000  0.272727  0.000000      2.000000
 -0.272727  0.272727  0.000000      2.000000
  0.303030  0.000000  0.000000      2.000000
  0.000000  0.303030  0.000000      2.000000
 -0.303030  0.303030  0.000000      2.000000
  0.333333  0.000000  0.000000      2.000000
  0.000000  0.333333  0.000000      2.000000
 -0.333333  0.333333  0.000000      2.000000
  0.363636 -0.000000  0.000000      2.000000
 -0.000000  0.363636  0.000000      2.000000
 -0.363636  0.363636  0.000000      2.000000
  0.393939 -0.000000  0.000000      2.000000
 -0.000000  0.393939  0.000000      2.000000
 -0.393939  0.393939  0.000000      2.000000
  0.424242  0.000000  0.000000      2.000000
  0.000000  0.424242  0.000000      2.000000
 -0.424242  0.424242  0.000000      2.000000
  0.454545 -0.000000  0.000000      2.000000
  0.000000  0.454545  0.000000      2.000000
 -0.454545  0.454545  0.000000      2.000000
  0.484848  0.000000  0.000000      2.000000
 -0.000000  0.484848  0.000000      2.000000
 -0.484848  0.484848  0.000000      2.000000
  0.030303  0.030303  0.000000      2.000000
 -0.030303  0.060606  0.000000      2.000000
 -0.060606  0.030303  0.000000      2.000000
  0.060606  0.030303  0.000000      2.000000
 -0.030303  0.090909  0.000000      2.000000
 -0.090909  0.060606  0.000000      2.000000
 -0.060606  0.090909  0.000000      2.000000
  0.030303  0.060606  0.000000      2.000000
  0.090909 -0.030303  0.000000      2.000000
  0.090909  0.030303  0.000000      2.000000
 -0.030303  0.121212  0.000000      2.000000
[...]
  0.272727  0.333333  0.000000      2.000000
 -0.393939 -0.272727  0.000000      2.000000
  0.363636  0.272727  0.000000      2.000000
 -0.272727 -0.363636  0.000000      2.000000
  0.363636  0.363636  0.000000      2.000000
  0.303030  0.303030  0.000000      2.000000
 -0.303030 -0.393939  0.000000      2.000000
  0.393939  0.303030  0.000000      2.000000
  0.333333  0.303030  0.000000      2.000000
 -0.303030 -0.363636  0.000000      2.000000
  0.363636  0.333333  0.000000      2.000000
 -0.333333 -0.363636  0.000000      2.000000
  0.303030  0.333333  0.000000      2.000000
 -0.363636 -0.303030  0.000000      2.000000
  0.333333  0.333333  0.000000      2.000000

 Following cartesian coordinates:
            Coordinates               Weight
  0.000000  0.000000  0.000000      1.000000
  0.003610  0.006253  0.000000      2.000000
 -0.003610  0.006253  0.000000      2.000000
 -0.007221  0.000000  0.000000      2.000000
  0.007221  0.012506  0.000000      2.000000
 -0.007221  0.012506  0.000000      2.000000
 -0.014441  0.000000  0.000000      2.000000
  0.010831  0.018760  0.000000      2.000000
 -0.010831  0.018760  0.000000      2.000000
 -0.021662  0.000000  0.000000      2.000000
  0.014441  0.025013  0.000000      2.000000
 -0.014441  0.025013  0.000000      2.000000
 -0.028882  0.000000  0.000000      2.000000
  0.018051  0.031266  0.000000      2.000000
 -0.018051  0.031266  0.000000      2.000000
 -0.036103 -0.000000  0.000000      2.000000
  0.021662  0.037519  0.000000      2.000000
 -0.021662  0.037519  0.000000      2.000000
 -0.043323  0.000000  0.000000      2.000000
  0.025272  0.043772  0.000000      2.000000
 -0.025272  0.043772  0.000000      2.000000
 -0.050544 -0.000000  0.000000      2.000000
  0.028882  0.050026  0.000000      2.000000
 -0.028882  0.050026  0.000000      2.000000
 -0.057765 -0.000000  0.000000      2.000000
  0.032493  0.056279  0.000000      2.000000
 -0.032493  0.056279  0.000000      2.000000
 -0.064985  0.000000  0.000000      2.000000
  0.036103  0.062532  0.000000      2.000000
 -0.036103  0.062532  0.000000      2.000000
 -0.072206  0.000000  0.000000      2.000000
  0.039713  0.068785  0.000000      2.000000
 -0.039713  0.068785  0.000000      2.000000
[...]
 k-point  31 :  -0.3030 0.3030 0.0000  plane waves:    6602
 k-point  32 :   0.3333 0.0000 0.0000  plane waves:    6604
 k-point  33 :   0.0000 0.3333 0.0000  plane waves:    6604
 k-point  34 :  -0.3333 0.3333 0.0000  plane waves:    6604
 k-point  35 :   0.3636-0.0000 0.0000  plane waves:    6598
 k-point  36 :  -0.0000 0.3636 0.0000  plane waves:    6598
 k-point  37 :  -0.3636 0.3636 0.0000  plane waves:    6598
 k-point  38 :   0.3939-0.0000 0.0000  plane waves:    6594
 k-point  39 :  -0.0000 0.3939 0.0000  plane waves:    6594
 k-point  40 :  -0.3939 0.3939 0.0000  plane waves:    6594
 k-point  41 :   0.4242 0.0000 0.0000  plane waves:    6598
 k-point  42 :   0.0000 0.4242 0.0000  plane waves:    6598
 k-point  43 :  -0.4242 0.4242 0.0000  plane waves:    6598
 k-point  44 :   0.4545-0.0000 0.0000  plane waves:    6586
 k-point  45 :   0.0000 0.4545 0.0000  plane waves:    6586
 k-point  46 :  -0.4545 0.4545 0.0000  plane waves:    6586
 k-point  47 :   0.4848 0.0000 0.0000  plane waves:    6592
 k-point  48 :  -0.0000 0.4848 0.0000  plane waves:    6592
 k-point  49 :  -0.4848 0.4848 0.0000  plane waves:    6592
 k-point  50 :   0.0303 0.0303 0.0000  plane waves:    6643
 k-point  51 :  -0.0303 0.0606 0.0000  plane waves:    6643
 k-point  52 :  -0.0606 0.0303 0.0000  plane waves:    6643
 k-point  53 :   0.0606 0.0303 0.0000  plane waves:    6632
 k-point  54 :  -0.0303 0.0909 0.0000  plane waves:    6632
 k-point  55 :  -0.0909 0.0606 0.0000  plane waves:    6632
 k-point  56 :  -0.0606 0.0909 0.0000  plane waves:    6632
 k-point  57 :   0.0303 0.0606 0.0000  plane waves:    6632
 k-point  58 :   0.0909-0.0303 0.0000  plane waves:    6632
 k-point  59 :   0.0909 0.0303 0.0000  plane waves:    6640
 k-point  60 :  -0.0303 0.1212 0.0000  plane waves:    6640
[...]
 k-point 531 :   0.2727 0.3333 0.0000  plane waves:    6610
 k-point 532 :  -0.3939-0.2727 0.0000  plane waves:    6610
 k-point 533 :   0.3636 0.2727 0.0000  plane waves:    6604
 k-point 534 :  -0.2727-0.3636 0.0000  plane waves:    6604
 k-point 535 :   0.3636 0.3636 0.0000  plane waves:    6604
 k-point 536 :   0.3030 0.3030 0.0000  plane waves:    6606
 k-point 537 :  -0.3030-0.3939 0.0000  plane waves:    6606
 k-point 538 :   0.3939 0.3030 0.0000  plane waves:    6606
 k-point 539 :   0.3333 0.3030 0.0000  plane waves:    6616
 k-point 540 :  -0.3030-0.3636 0.0000  plane waves:    6616
 k-point 541 :   0.3636 0.3333 0.0000  plane waves:    6616
 k-point 542 :  -0.3333-0.3636 0.0000  plane waves:    6616
 k-point 543 :   0.3030 0.3333 0.0000  plane waves:    6616
 k-point 544 :  -0.3636-0.3030 0.0000  plane waves:    6616
 k-point 545 :   0.3333 0.3333 0.0000  plane waves:    6642

 maximum and minimum number of plane-waves per node :      6663     6586

 maximum number of plane-waves:      6663
 maximum index in each direction:
   IXMAX=    8   IYMAX=    8   IZMAX=   25
   IXMIN=   -8   IYMIN=   -8   IZMIN=  -25

 serial   3D FFT for wavefunctions
 parallel 3D FFT for charge:
    minimum data exchange during FFTs selected (reduces bandwidth)

 initial charge density was supplied:
 number of electron      56.0000000 magnetization
 keeping initial charge density in first step

 Maximum index for augmentation-charges          392 (set IRDMAX)

 First call to EWALD:  gamma=   0.263
 Maximum number of real-space cells 4x 4x 2
 Maximum number of reciprocal cells 2x 2x 6

--------------------------------------- Iteration      1(   1)  ---------------------------------------

 eigenvalue-minimisations  : 86064
 total energy-change (2. order) :-0.1245949E+03  (-0.1673191E+03)
 number of electron      56.0000000 magnetization
 augmentation part       56.0000000 magnetization

 Free energy of the ion-electron system (eV)
  alpha Z        PSCENC =        58.30706670
  Ewald energy   TEWEN  =      4730.33489792
  -Hartree energ DENC   =     -6487.01695553
  -exchange      EXHF   =         0.00000000
  -V(xc)+E(xc)   XCENC  =       180.67204252
  PAW double counting   =      5796.18155970    -5800.61295465
  entropy T*S    EENTRO =        -0.00022903
  eigenvalues    EBANDS =      -505.72379765
  atomic energy  EATOM  =      1903.26342058
  Solvation  Ediel_sol  =         0.00000000
  free energy    TOTEN  =      -124.59494944 eV

  energy without entropy =     -124.59472041  energy(sigma->0) =     -124.59483493

[...]

--------------------------------------- Iteration      1(   5)  ---------------------------------------

 eigenvalue-minimisations  : 91344
 total energy-change (2. order) :-0.1616172E-07  (-0.1617646E-07)
 number of electron      56.0000000 magnetization
 augmentation part       56.0000000 magnetization

 Free energy of the ion-electron system (eV)
  alpha Z        PSCENC =        58.30706670
  Ewald energy   TEWEN  =      4730.33489792
  -Hartree energ DENC   =     -6487.01695553
  -exchange      EXHF   =         0.00000000
  -V(xc)+E(xc)   XCENC  =       180.67204252
  PAW double counting   =      5796.18155970    -5800.61295465
  entropy T*S    EENTRO =        -0.00020820
  eigenvalues    EBANDS =      -506.67814367
  atomic energy  EATOM  =      1903.26342058
  Solvation  Ediel_sol  =         0.00000000
  free energy    TOTEN  =      -125.54927464 eV

  energy without entropy =     -125.54906644  energy(sigma->0) =     -125.54917054

 average (electrostatic) potential at core
  the test charge radii are     0.7672  0.6991
  (the norm of the test charge is              1.0000)
       1 -35.5647       2 -34.1054       3 -34.1053       4 -34.1053       5 -55.3293
       6 -55.3290       7 -55.3292       8 -55.6506       9 -55.6558      10 -55.6585
      11 -55.6555      12 -55.6506      13 -55.6603      14 -55.6508      15 -55.6556

 E-fermi :  -0.3230     XC(G=0):  -5.1701     alpha+bet : -5.0692

 Fermi energy:        -0.3229635787

 k-point     1 :       0.0000    0.0000    0.0000
  band No.  band energies     occupation
      1     -20.2409      2.00000
      2     -17.3877      2.00000
      3     -14.7534      2.00000
      4     -14.7517      2.00000
      5     -14.7516      2.00000
      6     -13.8696      2.00000
      7     -13.8695      2.00000
      8     -13.8677      2.00000
      9     -13.4991      2.00000
     10     -13.4990      2.00000
     11     -10.4224      2.00000
     12      -9.4335      2.00000
     13      -9.4334      2.00000
     14      -8.3806      2.00000
     15      -7.6460      2.00000
     16      -6.8495      2.00000
     17      -6.8494      2.00000
     18      -6.8493      2.00000
     19      -6.7215      2.00000
     20      -3.2999      2.00000
     21      -3.2998      2.00000
     22      -2.9030      2.00000
     23      -2.9029      2.00000
     24      -2.7964      2.00000
     25      -2.7961      2.00000
     26      -2.7878      2.00000
     27      -0.8764      2.00000
     28      -0.8742      2.00000
     29       0.9828      0.00000
     30       0.9902      0.00000
     31       1.3196      0.00000
     32       1.5840      0.00000
     33       1.5892      0.00000
     34       2.0895      0.00000
     35       2.8861      0.00000
     36       3.5048      0.00000
     37       3.5051      0.00000
     38       3.6091      0.00000
     39       4.6207      0.00000
     40       6.7289      0.00000
     41       7.4686      0.00000
     42       7.5941      0.00000
     43       7.6035      0.00000
     44       7.6037      0.00000
     45       7.8778      0.00000
     46       8.3813      0.00000
     47       8.3815      0.00000
     48       8.7878      0.00000

[...]

 k-point   545 :       0.3333    0.3333    0.0000
  band No.  band energies     occupation
      1     -18.2345      2.00000
      2     -18.2297      2.00000
      3     -18.2289      2.00000
      4     -16.6959      2.00000
      5     -14.6194      2.00000
      6     -14.6125      2.00000
      7     -13.0431      2.00000
      8     -13.0429      2.00000
      9     -11.2345      2.00000
     10      -9.1716      2.00000
     11      -9.1714      2.00000
     12      -8.1891      2.00000
     13      -8.1245      2.00000
     14      -8.1243      2.00000
     15      -8.1235      2.00000
     16      -6.8530      2.00000
     17      -6.8527      2.00000
     18      -6.8518      2.00000
     19      -6.1259      2.00000
     20      -5.9468      2.00000
     21      -5.9467      2.00000
     22      -5.7292      2.00000
     23      -5.7288      2.00000
     24      -5.2249      2.00000
     25      -3.8941      2.00000
     26      -3.4527      2.00000
     27      -3.4392      2.00000
     28      -0.3298      1.07751
     29      -0.3161      0.92222
     30       2.7008      0.00000
     31       3.7233      0.00000
     32       4.0142      0.00000
     33       4.0653      0.00000
     34       4.6051      0.00000
     35       4.6405      0.00000
     36       5.4876      0.00000
     37       5.7624      0.00000
     38       5.7642      0.00000
     39       6.2374      0.00000
     40       6.3640      0.00000
     41       6.3881      0.00000
     42       6.3902      0.00000
     43       6.4453      0.00000
     44       6.4499      0.00000
     45       7.0661      0.00000
     46       7.3262      0.00000
     47       7.4590      0.00000
     48       7.4626      0.00000

 soft charge-density along one line, spin component           1
         0         1         2         3         4         5         6         7         8         9
 total charge-density along one line

------------------------ aborting loop because EDIFF is reached ----------------------------------------

 total charge

# of ion       s       p       d       tot
    1        0.665   1.384   0.000   2.049
    2        0.675   1.248   0.000   1.923
    3        0.675   1.248   0.000   1.923
    4        0.675   1.248   0.000   1.923
    5        0.830   1.711   0.000   2.541
    6        0.830   1.711   0.000   2.541
    7        0.830   1.711   0.000   2.541
    8        0.879   1.841   0.000   2.720
    9        0.879   1.841   0.000   2.719
   10        0.879   1.841   0.000   2.720
   11        0.879   1.841   0.000   2.719
   12        0.879   1.841   0.000   2.720
   13        0.879   1.840   0.000   2.719
   14        0.879   1.841   0.000   2.720
   15        0.879   1.841   0.000   2.719
tot         12.211  24.984   0.000  37.195

  FORCE on cell =-STRESS in cart. coord.  units (eV):
  Direction    XX          YY          ZZ          XY          YZ          ZX
  Alpha Z    58.30707    58.30707    58.30707
  Ewald    6487.59908  6487.59009 -8244.85864    -0.00502     0.00052    -0.00251
  Hartree  6404.24014  6404.23821 -6321.44952    -0.00106     0.00018    -0.00103
  E(xc)    -201.77440  -201.77443  -208.81742    -0.00002    -0.00002    -0.00002
  Local  -13482.84185-13482.83223 13854.70576     0.00552    -0.00055     0.00336
  n-local   -43.25939   -43.25949   -42.65846    -0.00006    -0.00012    -0.00007
  augment    -4.12479    -4.12470    -3.67938    -0.00002     0.00001     0.00002
  Kinetic   781.88446   781.88634   909.16363     0.00121     0.00151     0.00085
  Fock        0.00000     0.00000     0.00000     0.00000     0.00000     0.00000
  Total       0.03033     0.03085     0.71303     0.00056     0.00152     0.00059
  in kB       0.15931     0.16203     3.74482     0.00295     0.00797     0.00312

 VOLUME and BASIS-vectors are now :
  energy-cutoff  :      450.00
  volume of cell :      305.06
      direct lattice vectors                 reciprocal lattice vectors
     4.196759107  2.423000000  0.000000000     0.119139552  0.206355757  0.000000000
    -4.196759107  2.423000000  0.000000000    -0.119139552  0.206355757  0.000000000
     0.000000000  0.000000000 15.000000000     0.000000000  0.000000000  0.066666667

  length of vectors
     4.846000000  4.846000000 15.000000000     0.238279104  0.238279104  0.066666667

 FORCES acting on ions
    electron-ion (+dipol)            ewald-force                    non-local-force                 convergence-correction
   -.126E-02 0.237E-02 0.224E+03   0.168E-02 -.196E-02 -.224E+03   0.749E-04 -.192E-03 -.840E-01   -.442E-03 -.293E-03 -.112E-02
   -.199E+02 -.111E+02 0.227E+03   0.226E+02 0.127E+02 -.227E+03   -.274E+01 -.162E+01 0.130E-02   0.310E-03 0.154E-03 -.956E-03
   0.195E+02 -.117E+02 0.227E+03   -.223E+02 0.132E+02 -.227E+03   0.277E+01 -.156E+01 0.147E-02   0.242E-03 -.341E-03 -.107E-02
   0.354E+00 0.228E+02 0.227E+03   -.324E+00 -.259E+02 -.227E+03   -.296E-01 0.318E+01 0.102E-02   -.269E-03 0.291E-03 -.128E-02
   0.356E+00 -.368E+02 0.303E+03   -.344E+00 0.431E+02 -.303E+03   -.124E-01 -.629E+01 0.710E-01   -.470E-03 0.541E-05 -.163E-02
   0.317E+02 0.187E+02 0.303E+03   -.371E+02 -.218E+02 -.303E+03   0.545E+01 0.313E+01 0.709E-01   0.397E-03 0.385E-04 -.223E-02
   -.320E+02 0.181E+02 0.303E+03   0.375E+02 -.212E+02 -.303E+03   -.544E+01 0.316E+01 0.715E-01   -.481E-03 -.229E-03 -.161E-02
   0.552E-01 0.566E-01 -.227E+03   -.619E-01 -.492E-01 0.227E+03   0.740E-02 -.703E-02 0.467E-01   -.285E-03 -.198E-03 0.136E-02
   0.385E+00 -.685E+00 -.228E+03   -.387E+00 0.708E+00 0.228E+03   0.238E-02 -.224E-01 0.272E-01   -.171E-03 -.302E-03 0.100E-02
   0.888E-02 0.158E-01 -.228E+03   -.885E-02 -.164E-01 0.228E+03   -.235E-04 0.595E-03 0.723E-02   -.130E-03 -.146E-03 0.576E-03
   -.788E+00 0.242E-01 -.228E+03   0.808E+00 -.328E-01 0.228E+03   -.204E-01 0.958E-02 0.273E-01   0.550E-04 -.405E-03 0.476E-03
   -.639E-01 0.205E-02 -.227E+03   0.610E-01 -.114E-01 0.227E+03   0.223E-02 0.929E-02 0.464E-01   -.129E-04 0.155E-03 0.109E-02
   -.713E-02 -.100E-01 -.225E+03   0.659E-02 0.975E-02 0.225E+03   0.216E-03 -.116E-04 0.538E-01   0.472E-03 0.412E-03 0.995E-03
   0.158E-02 -.717E-01 -.227E+03   0.737E-02 0.736E-01 0.227E+03   -.970E-02 -.283E-02 0.464E-01   0.555E-03 0.173E-03 0.137E-03
   0.408E+00 0.669E+00 -.227E+03   -.425E+00 -.682E+00 0.227E+03   0.180E-01 0.131E-01 0.282E-01   -.329E-03 0.287E-03 0.714E-03
   0.351E-03 0.506E-03 -.412E+00   0.494E-14 -.422E-14 -.171E-12   0.256E-03 0.248E-04 0.416E+00   -.559E-03 -.399E-03 -.355E-02

 POSITION                                       TOTAL-FORCE (eV/Angst)
      0.00570      0.01636      1.52252         0.000049     -0.000083     -0.046964
      1.49517      0.87767      1.51067        -0.005458     -0.003374     -0.047644
     -1.48495      0.87559      1.51068         0.005306     -0.003036     -0.047645
      0.00689      3.14179      1.51063        -0.000083      0.006088     -0.047640
      0.00689      1.58447      1.51096         0.000017     -0.006515     -0.039943
      2.84384      1.65631      1.51096         0.005701      0.003127     -0.039887
     -2.83360      1.65425      1.51092        -0.005641      0.003419     -0.039982
     -2.09809      1.21197      5.02673         0.000418      0.000236      0.038455
     -0.69947      1.21207      5.02725        -0.000263      0.000425      0.038593
      0.00019      0.00045      5.02614        -0.000131     -0.000171      0.039005
     -2.79746      2.42355      5.02731         0.000520      0.000552      0.038648
      0.00011      2.42355      5.02677        -0.000681      0.000109      0.038475
      1.39910      2.42345      5.02520         0.000149      0.000130      0.039278
      2.09852      1.21184      5.02671        -0.000198     -0.000726      0.038607
     -0.69929      3.63472      5.02725         0.000296     -0.000183      0.038643
    total drift:                                0.000047      0.000133      0.000793

  FREE ENERGIE OF THE ION-ELECTRON SYSTEM (eV)
  free  energy   TOTEN  =      -125.54927464 eV

  energy  without entropy=     -125.54906644  energy(sigma->0) =     -125.54917054

 stress matrix after NEB project (eV)
      0.03033      0.00056      0.00059
      0.00056      0.03085      0.00152
      0.00059      0.00152      0.71303
  FORCES: max atom, RMS     0.048074    0.041662
  FORCE total and by dimension    0.161358    0.047645
  Stress total and by dimension    0.714348    0.713032

 total charge

# of ion       s       p       d       tot
    1        0.665   1.384   0.000   2.049
    2        0.675   1.248   0.000   1.923
    3        0.675   1.248   0.000   1.923
    4        0.675   1.248   0.000   1.923
    5        0.830   1.711   0.000   2.541
    6        0.830   1.711   0.000   2.541
    7        0.830   1.711   0.000   2.541
    8        0.879   1.841   0.000   2.720
    9        0.879   1.841   0.000   2.719
   10        0.879   1.841   0.000   2.720
   11        0.879   1.841   0.000   2.719
   12        0.879   1.841   0.000   2.720
   13        0.879   1.840   0.000   2.719
   14        0.879   1.841   0.000   2.720
   15        0.879   1.841   0.000   2.719
tot         12.211  24.984   0.000  37.195