 vasp.6.3.2 27Jun22 (build Dec 22 2022 13:13:19) complex

 executed on             LinuxIFC date 2024.03.05  01:22:49

 INCAR:
   SYSTEM = PDoS
   ISTART = 1
   ICHARG = 11
   PREC = Accurate
   LORBIT = 11
   NEDOS = 4000
   ENCUT = 450
   LCHARG = .FALSE.
   LWAVE = .FALSE.
   ALGO = Normal
   EDIFF = 1E-6
   EDIFFG = -1E-3
   SIGMA = 0.1
   ISMEAR = 0
   SYMPREC = 1E-6
   NSW = 0
   IBRION = -1
   POTIM = .5

 POTCAR:    PAW_PBE B 06Sep2000
 POTCAR:    PAW_PBE C 08Apr2002
 POTCAR:    PAW_PBE B 06Sep2000
   VRHFIN =B: s2p1

   TITEL  = PAW_PBE B 06Sep2000
   POMASS =   10.811; ZVAL   =    3.000    mass and valenz
   ENMAX  =  318.614; ENMIN  =  238.960 eV

   TITEL  = PAW_PBE C 08Apr2002
   POMASS =   12.011; ZVAL   =    4.000    mass and valenz
   ENMAX  =  400.000; ENMIN  =  300.000 eV

  PAW_PBE B 06Sep2000                   :
  PAW_PBE C 08Apr2002                   :

 POSCAR: Graphene-Borophene Top with lattice para
  positions in direct lattice
  velocities in cartesian coordinates
 exchange correlation table for  LEXCH =        8
   RHO(1)=    0.500       N(1)  =     2000
   RHO(2)=  100.500       N(2)  =     4000

 VTST: version 4.2, (08/11/21)

 CHAIN: initializing optimizer

 OPT: Using VASP Dynamics algorithm
 CHAIN: Read ICHAIN            0

 POSCAR: Graphene-Borophene Top with lattice para
  positions in direct lattice
  velocities in cartesian coordinates

 ion  position               nearest neighbor table
   1  0.669  0.000  0.101-   3 1.65   6 1.65   7 1.68   8 1.68   2 1.68
   2  0.332  0.000  0.101-   5 1.65   4 1.65   7 1.68   8 1.68   1 1.68
   3  1.000  0.331  0.101-   1 1.65   5 1.65   7 1.68   8 1.68   4 1.68
   4  1.000  0.668  0.101-   6 1.65   2 1.65   7 1.68   8 1.68   3 1.68
   5  0.332  0.331  0.101-   2 1.65   3 1.65   7 1.68   8 1.68   6 1.68
   6  0.669  0.668  0.101-   4 1.65   1 1.65   7 1.68   8 1.68   5 1.68
   7  0.667  0.333  0.088-   5 1.68   6 1.68   2 1.68   1 1.68   4 1.68   3 1.68
   8  0.333  0.667  0.114-   5 1.68   6 1.68   3 1.68   4 1.68   1 1.68   2 1.68
   9  0.167  0.333  0.335-  14 1.44  10 1.44  12 1.44
  10  0.333  0.167  0.334-  11 1.44   9 1.44  13 1.44
  11  0.167  0.833  0.335-  16 1.44  10 1.44  12 1.44
  12  0.333  0.667  0.335-   9 1.44  15 1.44  11 1.44
  13  0.667  0.333  0.334-  10 1.44  16 1.44  14 1.44
  14  0.833  0.167  0.334-   9 1.44  15 1.44  13 1.44
  15  0.667  0.833  0.335-  14 1.44  16 1.44  12 1.44
  16  0.833  0.667  0.334-  11 1.44  15 1.44  13 1.44

  LATTYP: Found a hexagonal cell.
 ALAT       =     4.9790000000
 C/A-ratio  =     3.0126531432

  Lattice vectors:

 A1 = (   4.3119404854,   2.4895000000,   0.0000000000)
 A2 = (  -4.3119404854,   2.4895000000,   0.0000000000)
 A3 = (   0.0000000000,   0.0000000000,  15.0000000000)

Analysis of symmetry for initial positions (statically):
 Subroutine PRICEL returns:
 Original cell was already a primitive cell.

 Routine SETGRP: Setting up the symmetry group for a
 hexagonal supercell.

 Subroutine GETGRP returns: Found  2 space group operations
 (whereof  1 operations were pure point group operations)
 out of a pool of 24 trial point group operations.

The static configuration has the point symmetry C_1 .
 The point group associated with its full space group is C_1h.

Analysis of symmetry for dynamics (positions and initial velocities):
 Subroutine PRICEL returns:
 Original cell was already a primitive cell.

 Routine SETGRP: Setting up the symmetry group for a
 hexagonal supercell.

 Subroutine GETGRP returns: Found  2 space group operations
 (whereof  1 operations were pure point group operations)
 out of a pool of 24 trial point group operations.

The dynamic configuration has the point symmetry C_1 .
 The point group associated with its full space group is C_1h.

 Subroutine INISYM returns: Found  2 space group operations
 (whereof  1 operations are pure point group operations),
 and found     1 'primitive' translations

                                     Primitive cell

  volume of cell :     322.0373

  direct lattice vectors                    reciprocal lattice vectors
     4.311940485  2.489500000  0.000000000     0.115957074  0.200843543  0.000000000
    -4.311940485  2.489500000  0.000000000    -0.115957074  0.200843543  0.000000000
     0.000000000  0.000000000 15.000000000     0.000000000  0.000000000  0.066666667

  length of vectors
     4.979000000  4.979000000 15.000000000     0.231914147  0.231914147  0.066666667

  position of ions in fractional coordinates (direct lattice)
     0.668529486  0.000031744  0.101490874
     0.331501257  0.000031744  0.101490874
     0.999968256  0.331469514  0.101490874
     0.999968256  0.668497743  0.101490874
     0.331501257  0.331469514  0.101490874
     0.668529486  0.668497743  0.101490874
     0.666666000  0.333333000  0.088455217
     0.333333000  0.666666000  0.114424057
     0.166653576  0.333308152  0.334568638
     0.333330518  0.166664759  0.334466239
     0.166653576  0.833345424  0.334568638
     0.333333000  0.666666000  0.334626021
     0.666666000  0.333333000  0.334444829
     0.833334241  0.166664759  0.334466239
     0.666690848  0.833345424  0.334568638
     0.833334241  0.666668482  0.334466239

  ion indices of the primitive-cell ions
   primitive index   ion index
                 1           1
                 2           2
                 3           3
                 4           4
                 5           5
                 6           6
                 7           7
                 8           8
                 9           9
                10          10
                11          11
                12          12
                13          13
                14          14
                15          15
                16          16

 KPOINTS: k-points

Automatic generation of k-mesh.
 Grid dimensions read from file:
 generate k-points for:   33   33    1

 Generating k-lattice:

  Cartesian coordinates                     Fractional coordinates (reciprocal lattice)
     0.003513851  0.006086168  0.000000000     0.030303030 -0.000000000  0.000000000
    -0.003513851  0.006086168  0.000000000    -0.000000000  0.030303030  0.000000000
     0.000000000  0.000000000  0.066666667     0.000000000  0.000000000  1.000000000

  Length of vectors
     0.007027701  0.007027701  0.066666667

  Shift w.r.t. Gamma in fractional coordinates (k-lattice)
     0.000000000  0.000000000  0.000000000

 Subroutine IBZKPT returns following result:

 Found    289 irreducible k-points:

 Following reciprocal coordinates:
            Coordinates               Weight
  0.000000  0.000000  0.000000      1.000000
  0.030303 -0.000000  0.000000      4.000000
 -0.030303  0.030303  0.000000      2.000000
  0.060606 -0.000000  0.000000      4.000000
 -0.060606  0.060606  0.000000      2.000000
  0.090909  0.000000  0.000000      4.000000
 -0.090909  0.090909  0.000000      2.000000
  0.121212 -0.000000  0.000000      4.000000
 -0.121212  0.121212  0.000000      2.000000
  0.151515  0.000000  0.000000      4.000000
 -0.151515  0.151515  0.000000      2.000000
  0.181818 -0.000000  0.000000      4.000000
 -0.181818  0.181818  0.000000      2.000000
  0.212121 -0.000000  0.000000      4.000000
 -0.212121  0.212121  0.000000      2.000000
  0.242424 -0.000000  0.000000      4.000000
 -0.242424  0.242424  0.000000      2.000000
  0.272727  0.000000  0.000000      4.000000
 -0.272727  0.272727  0.000000      2.000000
  0.303030 -0.000000  0.000000      4.000000
 -0.303030  0.303030  0.000000      2.000000
  0.333333 -0.000000  0.000000      4.000000
 -0.333333  0.333333  0.000000      2.000000
  0.363636 -0.000000  0.000000      4.000000
 -0.363636  0.363636  0.000000      2.000000
  0.393939 -0.000000  0.000000      4.000000
 -0.393939  0.393939  0.000000      2.000000
  0.424242 -0.000000  0.000000      4.000000
 -0.424242  0.424242  0.000000      2.000000
  0.454545 -0.000000  0.000000      4.000000
 -0.454545  0.454545  0.000000      2.000000
  0.484848 -0.000000  0.000000      4.000000
 -0.484848  0.484848  0.000000      2.000000
  0.030303  0.030303  0.000000      2.000000
 -0.030303  0.060606  0.000000      4.000000
  0.060606  0.030303  0.000000      4.000000
 -0.030303  0.090909  0.000000      4.000000
 -0.090909  0.060606  0.000000      4.000000
  0.090909  0.030303  0.000000      4.000000
 -0.030303  0.121212  0.000000      4.000000
 -0.121212  0.090909  0.000000      4.000000
  0.121212  0.030303  0.000000      4.000000
 -0.030303  0.151515  0.000000      4.000000
 -0.151515  0.121212  0.000000      4.000000
  0.151515  0.030303  0.000000      4.000000
 -0.030303  0.181818  0.000000      4.000000
 -0.181818  0.151515  0.000000      4.000000
  0.181818  0.030303  0.000000      4.000000
 -0.030303  0.212121  0.000000      4.000000
 -0.212121  0.181818  0.000000      4.000000
  0.212121  0.030303  0.000000      4.000000
 -0.030303  0.242424  0.000000      4.000000
 -0.242424  0.212121  0.000000      4.000000
  0.242424  0.030303  0.000000      4.000000
 -0.030303  0.272727  0.000000      4.000000
 -0.272727  0.242424  0.000000      4.000000
  0.272727  0.030303  0.000000      4.000000
 -0.030303  0.303030  0.000000      4.000000
 -0.303030  0.272727  0.000000      4.000000
  0.303030  0.030303  0.000000      4.000000
[...]
 -0.272727 -0.454545  0.000000      4.000000
  0.303030  0.272727  0.000000      4.000000
 -0.272727 -0.424242  0.000000      4.000000
  0.424242  0.303030  0.000000      4.000000
  0.333333  0.272727  0.000000      4.000000
 -0.272727 -0.393939  0.000000      4.000000
  0.393939  0.333333  0.000000      4.000000
  0.363636  0.272727  0.000000      4.000000
  0.363636  0.363636  0.000000      2.000000
  0.303030  0.303030  0.000000      2.000000
 -0.303030 -0.393939  0.000000      4.000000
  0.333333  0.303030  0.000000      4.000000
 -0.303030 -0.363636  0.000000      4.000000
  0.363636  0.333333  0.000000      4.000000
  0.333333  0.333333  0.000000      2.000000

 Following cartesian coordinates:
            Coordinates               Weight
  0.000000  0.000000  0.000000      1.000000
  0.003514  0.006086  0.000000      4.000000
 -0.007028 -0.000000  0.000000      2.000000
  0.007028  0.012172  0.000000      4.000000
 -0.014055 -0.000000  0.000000      2.000000
  0.010542  0.018259  0.000000      4.000000
 -0.021083 -0.000000  0.000000      2.000000
  0.014055  0.024345  0.000000      4.000000
 -0.028111 -0.000000  0.000000      2.000000
  0.017569  0.030431  0.000000      4.000000
 -0.035139 -0.000000  0.000000      2.000000
  0.021083  0.036517  0.000000      4.000000
 -0.042166 -0.000000  0.000000      2.000000
  0.024597  0.042603  0.000000      4.000000
 -0.049194 -0.000000  0.000000      2.000000
  0.028111  0.048689  0.000000      4.000000
 -0.056222  0.000000  0.000000      2.000000
  0.031625  0.054776  0.000000      4.000000
 -0.063249  0.000000  0.000000      2.000000
  0.035139  0.060862  0.000000      4.000000
 -0.070277 -0.000000  0.000000      2.000000
  0.038652  0.066948  0.000000      4.000000
 -0.077305 -0.000000  0.000000      2.000000
  0.042166  0.073034  0.000000      4.000000
 -0.084332  0.000000  0.000000      2.000000
[...]
 k-point  36 :   0.0606 0.0303 0.0000  plane waves:    6997
 k-point  37 :  -0.0303 0.0909 0.0000  plane waves:    6997
 k-point  38 :  -0.0909 0.0606 0.0000  plane waves:    6997
 k-point  39 :   0.0909 0.0303 0.0000  plane waves:    6983
 k-point  40 :  -0.0303 0.1212 0.0000  plane waves:    6983
 k-point  41 :  -0.1212 0.0909 0.0000  plane waves:    6983
 k-point  42 :   0.1212 0.0303 0.0000  plane waves:    6990
 k-point  43 :  -0.0303 0.1515 0.0000  plane waves:    6990
 k-point  44 :  -0.1515 0.1212 0.0000  plane waves:    6990
 k-point  45 :   0.1515 0.0303 0.0000  plane waves:    7000
 k-point  46 :  -0.0303 0.1818 0.0000  plane waves:    7000
 k-point  47 :  -0.1818 0.1515 0.0000  plane waves:    7000
 k-point  48 :   0.1818 0.0303 0.0000  plane waves:    6998
 k-point  49 :  -0.0303 0.2121 0.0000  plane waves:    6998
 k-point  50 :  -0.2121 0.1818 0.0000  plane waves:    6998
 k-point  51 :   0.2121 0.0303 0.0000  plane waves:    6996
 k-point  52 :  -0.0303 0.2424 0.0000  plane waves:    6996
 k-point  53 :  -0.2424 0.2121 0.0000  plane waves:    6996
 k-point  54 :   0.2424 0.0303 0.0000  plane waves:    6993
 k-point  55 :  -0.0303 0.2727 0.0000  plane waves:    6993
 k-point  56 :  -0.2727 0.2424 0.0000  plane waves:    6993
 k-point  57 :   0.2727 0.0303 0.0000  plane waves:    6990
 k-point  58 :  -0.0303 0.3030 0.0000  plane waves:    6990
 k-point  59 :  -0.3030 0.2727 0.0000  plane waves:    6990
 k-point  60 :   0.3030 0.0303 0.0000  plane waves:    6985
[...]
 k-point 275 :  -0.2727-0.4545 0.0000  plane waves:    6943
 k-point 276 :   0.3030 0.2727 0.0000  plane waves:    6951
 k-point 277 :  -0.2727-0.4242 0.0000  plane waves:    6951
 k-point 278 :   0.4242 0.3030 0.0000  plane waves:    6951
 k-point 279 :   0.3333 0.2727 0.0000  plane waves:    6942
 k-point 280 :  -0.2727-0.3939 0.0000  plane waves:    6942
 k-point 281 :   0.3939 0.3333 0.0000  plane waves:    6942
 k-point 282 :   0.3636 0.2727 0.0000  plane waves:    6928
 k-point 283 :   0.3636 0.3636 0.0000  plane waves:    6928
 k-point 284 :   0.3030 0.3030 0.0000  plane waves:    6921
 k-point 285 :  -0.3030-0.3939 0.0000  plane waves:    6921
 k-point 286 :   0.3333 0.3030 0.0000  plane waves:    6928
 k-point 287 :  -0.3030-0.3636 0.0000  plane waves:    6928
 k-point 288 :   0.3636 0.3333 0.0000  plane waves:    6928
 k-point 289 :   0.3333 0.3333 0.0000  plane waves:    6936

 maximum and minimum number of plane-waves per node :      7013     6921

 maximum number of plane-waves:      7013
 maximum index in each direction:
   IXMAX=    9   IYMAX=    9   IZMAX=   25
   IXMIN=   -9   IYMIN=   -9   IZMIN=  -25

 serial   3D FFT for wavefunctions
 parallel 3D FFT for charge:
    minimum data exchange during FFTs selected (reduces bandwidth)

 initial charge density was supplied:
 number of electron      55.9999991 magnetization
 keeping initial charge density in first step

 Maximum index for augmentation-charges          383 (set IRDMAX)

 First call to EWALD:  gamma=   0.259
 Maximum number of real-space cells 4x 4x 2
 Maximum number of reciprocal cells 2x 2x 5

--------------------------------------- Iteration      1(   1)  ---------------------------------------

 eigenvalue-minimisations  : 48048
 total energy-change (2. order) :-0.1231684E+03  (-0.1354774E+03)
 number of electron      55.9999991 magnetization
 augmentation part       55.9999991 magnetization

 Free energy of the ion-electron system (eV)
  alpha Z        PSCENC =        60.47074313
  Ewald energy   TEWEN  =      4495.95153103
  -Hartree energ DENC   =     -6105.97160522
  -exchange      EXHF   =         0.00000000
  -V(xc)+E(xc)   XCENC  =       168.42621274
  PAW double counting   =      5765.87674027    -5765.24031214
  entropy T*S    EENTRO =        -0.00228702
  eigenvalues    EBANDS =      -489.18499981
  atomic energy  EATOM  =      1746.50554237
  Solvation  Ediel_sol  =         0.00000000
  free energy    TOTEN  =      -123.16843466 eV

  energy without entropy =     -123.16614763  energy(sigma->0) =     -123.16729115

[...]

--------------------------------------- Iteration      1(   5)  ---------------------------------------

 eigenvalue-minimisations  : 50064
 total energy-change (2. order) :-0.2194702E-07  (-0.2193520E-07)
 number of electron      55.9999991 magnetization
 augmentation part       55.9999991 magnetization

 Free energy of the ion-electron system (eV)
  alpha Z        PSCENC =        60.47074313
  Ewald energy   TEWEN  =      4495.95153103
  -Hartree energ DENC   =     -6105.97160522
  -exchange      EXHF   =         0.00000000
  -V(xc)+E(xc)   XCENC  =       168.42621274
  PAW double counting   =      5765.87674027    -5765.24031214
  entropy T*S    EENTRO =        -0.00273287
  eigenvalues    EBANDS =      -490.07445198
  atomic energy  EATOM  =      1746.50554237
  Solvation  Ediel_sol  =         0.00000000
  free energy    TOTEN  =      -124.05833267 eV

  energy without entropy =     -124.05559981  energy(sigma->0) =     -124.05696624

 average (electrostatic) potential at core
  the test charge radii are     0.7672  0.6991
  (the norm of the test charge is              1.0000)
       1 -33.1604       2 -33.1605       3 -33.1605       4 -33.1604       5 -33.1605
       6 -33.1604       7 -34.5012       8 -34.5099       9 -55.9648      10 -55.9626
      11 -55.9648      12 -55.9671      13 -55.9667      14 -55.9625      15 -55.9648
      16 -55.9626

 E-fermi :  -0.2652     XC(G=0):  -5.2164     alpha+bet : -5.2469

 Fermi energy:        -0.2652130506

 k-point     1 :       0.0000    0.0000    0.0000
  band No.  band energies     occupation
      1     -19.7683      2.00000
      2     -15.8967      2.00000
      3     -14.6561      2.00000
      4     -14.6515      2.00000
      5     -14.6514      2.00000
      6     -13.5283      2.00000
      7     -13.5283      2.00000
      8     -13.5258      2.00000
      9     -11.7062      2.00000
     10     -11.5209      2.00000
     11     -11.5209      2.00000
     12      -9.3202      2.00000
     13      -9.3202      2.00000
     14      -8.0838      2.00000
     15      -7.3231      2.00000
     16      -6.8059      2.00000
     17      -6.8059      2.00000
     18      -6.8054      2.00000
     19      -6.5479      2.00000
     20      -3.5170      2.00000
     21      -3.5169      2.00000
     22      -2.8551      2.00000
     23      -2.8214      2.00000
     24      -2.8214      2.00000
     25      -1.5295      2.00000
     26      -1.5295      2.00000
     27      -0.3682      1.85475
     28      -0.3682      1.85472
     29      -0.2358      0.67779
     30       0.9498      0.00000
     31       0.9498      0.00000
     32       1.1278      0.00000
     33       1.1278      0.00000
     34       1.1305      0.00000
     35       1.7632      0.00000
     36       1.7632      0.00000
     37       2.9912      0.00000
     38       3.5977      0.00000
     39       4.4960      0.00000
     40       4.8100      0.00000
     41       6.6148      0.00000
     42       6.6176      0.00000
     43       6.6176      0.00000
     44       7.0712      0.00000
     45       7.6621      0.00000
     46       7.6622      0.00000
     47       7.6779      0.00000
     48       8.4054      0.00000

[...]

 k-point   289 :       0.3333    0.3333    0.0000
  band No.  band energies     occupation
      1     -17.8570      2.00000
      2     -17.8529      2.00000
      3     -17.8504      2.00000
      4     -14.6241      2.00000
      5     -14.6227      2.00000
      6     -12.9854      2.00000
      7     -12.9853      2.00000
      8     -12.5486      2.00000
      9     -10.8175      2.00000
     10      -8.9763      2.00000
     11      -8.9727      2.00000
     12      -8.2010      2.00000
     13      -8.1987      2.00000
     14      -8.1985      2.00000
     15      -7.5915      2.00000
     16      -7.4305      2.00000
     17      -6.8032      2.00000
     18      -6.8025      2.00000
     19      -6.8024      2.00000
     20      -5.9020      2.00000
     21      -5.8181      2.00000
     22      -5.7180      2.00000
     23      -4.5998      2.00000
     24      -4.5061      2.00000
     25      -3.8858      2.00000
     26      -3.8751      2.00000
     27      -2.6435      2.00000
     28      -0.5260      1.99977
     29      -0.5123      1.99953
     30       2.8350      0.00000
     31       2.8450      0.00000
     32       3.7608      0.00000
     33       3.7662      0.00000
     34       4.3301      0.00000
     35       4.5644      0.00000
     36       5.3047      0.00000
     37       5.3139      0.00000
     38       5.6502      0.00000
     39       5.7125      0.00000
     40       5.7134      0.00000
     41       5.7219      0.00000
     42       6.1334      0.00000
     43       6.1443      0.00000
     44       6.3384      0.00000
     45       6.9241      0.00000
     46       7.0054      0.00000
     47       7.4224      0.00000
     48       7.9437      0.00000

 soft charge-density along one line, spin component           1
         0         1         2         3         4         5         6         7         8         9
 total charge-density along one line

------------------------ aborting loop because EDIFF is reached ----------------------------------------

 total charge

# of ion       s       p       d       tot
    1        0.706   1.443   0.000   2.149
    2        0.706   1.443   0.000   2.149
    3        0.706   1.443   0.000   2.149
    4        0.706   1.443   0.000   2.149
    5        0.706   1.443   0.000   2.149
    6        0.706   1.443   0.000   2.149
    7        0.686   1.409   0.000   2.095
    8        0.686   1.409   0.000   2.095
    9        0.858   1.759   0.000   2.617
   10        0.858   1.759   0.000   2.617
   11        0.858   1.759   0.000   2.617
   12        0.858   1.759   0.000   2.618
   13        0.858   1.759   0.000   2.617
   14        0.858   1.759   0.000   2.617
   15        0.858   1.759   0.000   2.617
   16        0.858   1.759   0.000   2.617
tot         12.477  25.545   0.000  38.023

  FORCE on cell =-STRESS in cart. coord.  units (eV):
  Direction    XX          YY          ZZ          XY          YZ          ZX
  Alpha Z    60.47074    60.47074    60.47074
  Ewald    6159.79023  6159.79504 -7823.63738     0.00000     0.00000    -0.00008
  Hartree  6045.25342  6045.25385 -5984.45638    -0.00000    -0.00000    -0.00002
  E(xc)    -195.83983  -195.83981  -202.25403     0.00000     0.00000     0.00000
  Local  -12754.98018-12754.98421 13138.44614     0.00001    -0.00000     0.00008
  n-local   -38.09497   -38.09498   -39.10306    -0.09874     0.00453     0.00000
  augment    -2.75886    -2.75879    -2.47049    -0.00000     0.00000    -0.00000
  Kinetic   727.17218   727.17176   854.06299    -0.40535    -0.04125    -0.00000
  Fock        0.00000     0.00000     0.00000     0.00000     0.00000     0.00000
  Total       1.01273     1.01359     1.05854     0.00000     0.00000    -0.00002
  in kB       5.03844     5.04276     5.26635     0.00000     0.00000    -0.00009

 VOLUME and BASIS-vectors are now :
  energy-cutoff  :      450.00
  volume of cell :      322.04
      direct lattice vectors                 reciprocal lattice vectors
     4.311940485  2.489500000  0.000000000     0.115957074  0.200843543  0.000000000
    -4.311940485  2.489500000  0.000000000    -0.115957074  0.200843543  0.000000000
     0.000000000  0.000000000 15.000000000     0.000000000  0.000000000  0.066666667

  length of vectors
     4.979000000  4.979000000 15.000000000     0.231914147  0.231914147  0.066666667

 FORCES acting on ions
    electron-ion (+dipol)            ewald-force                    non-local-force                 convergence-correction
   -.259E+02 -.149E+02 0.216E+03   0.288E+02 0.166E+02 -.216E+03   -.291E+01 -.169E+01 -.247E-01   -.990E-03 -.459E-03 -.777E-02
   0.258E+02 0.150E+02 0.216E+03   -.287E+02 -.166E+02 -.216E+03   0.292E+01 0.168E+01 -.247E-01   0.930E-03 0.635E-03 -.778E-02
   -.259E+02 0.149E+02 0.216E+03   0.288E+02 -.166E+02 -.216E+03   -.291E+01 0.169E+01 -.247E-01   -.990E-03 0.459E-03 -.777E-02
   0.258E+02 -.150E+02 0.216E+03   -.287E+02 0.166E+02 -.216E+03   0.292E+01 -.168E+01 -.247E-01   0.930E-03 -.635E-03 -.778E-02
   0.399E-01 0.299E+02 0.216E+03   -.365E-01 -.332E+02 -.216E+03   -.385E-02 0.337E+01 -.247E-01   0.131E-03 0.109E-02 -.779E-02
   0.399E-01 -.299E+02 0.216E+03   -.365E-01 0.332E+02 -.216E+03   -.385E-02 -.337E+01 -.247E-01   0.131E-03 -.109E-02 -.779E-02
   -.100E-03 -.127E-04 0.254E+03   0.206E-03 0.308E-03 -.255E+03   0.294E-04 0.114E-17 0.122E+01   -.458E-04 0.151E-08 -.639E-02
   0.301E-03 -.127E-04 0.178E+03   -.206E-03 0.308E-03 -.177E+03   -.364E-04 0.412E-18 -.125E+01   -.679E-04 0.185E-08 -.906E-02
   -.662E+00 0.115E+01 -.216E+03   0.671E+00 -.116E+01 0.216E+03   -.784E-02 0.138E-01 0.257E-01   -.144E-03 -.871E-03 -.114E-01
   0.368E+00 0.638E+00 -.215E+03   -.371E+00 -.642E+00 0.215E+03   0.329E-02 0.585E-02 0.443E-01   -.401E-03 -.129E-02 -.109E-01
   0.132E+01 0.493E-04 -.216E+03   -.134E+01 -.328E-05 0.216E+03   0.159E-01 -.186E-17 0.257E-01   -.816E-03 -.115E-08 -.114E-01
   0.445E-03 0.493E-04 -.218E+03   -.498E-03 0.354E-05 0.218E+03   -.719E-04 -.251E-17 -.576E-02   -.426E-04 -.971E-10 -.117E-01
   -.860E-03 0.492E-04 -.216E+03   0.500E-03 0.355E-05 0.216E+03   -.300E-04 0.481E-18 0.181E-01   0.478E-03 -.281E-09 -.109E-01
   -.736E+00 0.494E-04 -.215E+03   0.741E+00 -.329E-05 0.215E+03   -.679E-02 0.180E-17 0.443E-01   0.118E-02 -.991E-09 -.109E-01
   -.662E+00 -.115E+01 -.216E+03   0.671E+00 0.116E+01 0.216E+03   -.784E-02 -.138E-01 0.257E-01   -.144E-03 0.871E-03 -.114E-01
   0.368E+00 -.638E+00 -.215E+03   -.371E+00 0.642E+00 0.215E+03   0.329E-02 -.585E-02 0.443E-01   -.401E-03 0.129E-02 -.109E-01
   0.347E-03 0.761E-03 0.103E+00   -.160E-13 -.103E-13 0.171E-12   -.645E-04 -.867E-18 0.490E-01   -.259E-03 0.838E-08 -.152E+00

 POSITION                                       TOTAL-FORCE (eV/Angst)
      2.88252      1.66438      1.52236        -0.003524     -0.002355     -0.046501
      1.42928      0.82535      1.52236         0.003794      0.001848     -0.046498
      2.88253      3.31461      1.52236        -0.003524      0.002355     -0.046501
      1.42928      4.15365      1.52236         0.003794     -0.001848     -0.046498
      0.00014      1.65047      1.52236        -0.000321      0.004204     -0.046493
      0.00014      3.32853      1.52236        -0.000321     -0.004204     -0.046493
      1.43731      2.48950      1.32683         0.000087     -0.000000     -0.052373
     -1.43731      2.48950      1.71636        -0.000011      0.000000     -0.050517
     -0.71860      1.24465      5.01853         0.000780     -0.000940      0.047192
      0.71865      1.24474      5.01699         0.000119      0.000579      0.047875
     -2.87474      2.48950      5.01853        -0.000925     -0.000000      0.047192
     -1.43731      2.48950      5.01939        -0.000170      0.000000      0.047653
      1.43731      2.48950      5.01667         0.000087      0.000000      0.049023
      2.87464      2.48950      5.01699        -0.000764      0.000000      0.047874
     -0.71860      3.73434      5.01853         0.000780      0.000940      0.047192
      0.71865      3.73426      5.01699         0.000119     -0.000579      0.047875
    total drift:                                0.000024      0.000761      0.000449

  FREE ENERGIE OF THE ION-ELECTRON SYSTEM (eV)
  free  energy   TOTEN  =      -124.05833267 eV

  energy  without entropy=     -124.05559981  energy(sigma->0) =     -124.05696624

 stress matrix after NEB project (eV)
      1.01273      0.00000     -0.00002
      0.00000      1.01359      0.00000
     -0.00002      0.00000      1.05854
  FORCES: max atom, RMS     0.052373    0.047835
  FORCE total and by dimension    0.191338    0.052373
  Stress total and by dimension    1.781428    1.058536

 total charge

# of ion       s       p       d       tot
    1        0.706   1.443   0.000   2.149
    2        0.706   1.443   0.000   2.149
    3        0.706   1.443   0.000   2.149
    4        0.706   1.443   0.000   2.149
    5        0.706   1.443   0.000   2.149
    6        0.706   1.443   0.000   2.149
    7        0.686   1.409   0.000   2.095
    8        0.686   1.409   0.000   2.095
    9        0.858   1.759   0.000   2.617
   10        0.858   1.759   0.000   2.617
   11        0.858   1.759   0.000   2.617
   12        0.858   1.759   0.000   2.618
   13        0.858   1.759   0.000   2.617
   14        0.858   1.759   0.000   2.617
   15        0.858   1.759   0.000   2.617
   16        0.858   1.759   0.000   2.617
tot         12.477  25.545   0.000  38.023