 vasp.6.3.2 27Jun22 (build Dec 22 2022 13:13:19) complex

 executed on             LinuxIFC date 2023.11.05  13:11:56

 INCAR:
   SYSTEM = BS
   ISTART = 0
   ICHARG = 11
   PREC = Accurate
   LORBIT = 11
   ENCUT = 450
   ALGO = Normal
   NELM = 64
   EDIFF = 1E-6
   EDIFFG = -1E-3
   SIGMA = 0.1
   ISMEAR = 0
   GGA = PE
   IVDW = 12
   ISYM = 0

 POTCAR:    PAW_PBE B 06Sep2000
 POTCAR:    PAW_PBE C 08Apr2002
 POTCAR:    PAW_PBE B 06Sep2000
   VRHFIN =B: s2p1

   TITEL  = PAW_PBE B 06Sep2000
   POMASS =   10.811; ZVAL   =    3.000    mass and valenz
   ENMAX  =  318.614; ENMIN  =  238.960 eV

   TITEL  = PAW_PBE C 08Apr2002
   POMASS =   12.011; ZVAL   =    4.000    mass and valenz
   ENMAX  =  400.000; ENMIN  =  300.000 eV

  PAW_PBE B 06Sep2000                   :
  PAW_PBE C 08Apr2002                   :

 POSCAR: BC3 with lattice parameter 5.169
  positions in direct lattice
  velocities in cartesian coordinates
 exchange correlation table for  LEXCH =        8
   RHO(1)=    0.500       N(1)  =     2000
   RHO(2)=  100.500       N(2)  =     4000

 VTST: version 4.2, (08/11/21)

 CHAIN: initializing optimizer

 OPT: Using VASP Dynamics algorithm
 CHAIN: Read ICHAIN            0

 POSCAR: BC3 with lattice parameter 5.169
  positions in direct lattice
  velocities in cartesian coordinates

 ion  position               nearest neighbor table
   1  0.338  0.669  0.250-   5 1.56   3 1.56   7 1.56
   2  0.672  0.336  0.250-   6 1.56   4 1.56   8 1.56
   3  0.164  0.320  0.250-   6 1.42   4 1.42   1 1.56
   4  0.322  0.161  0.250-   5 1.42   3 1.42   2 1.56
   5  0.164  0.844  0.250-   4 1.42   8 1.42   1 1.56
   6  0.846  0.161  0.250-   7 1.42   3 1.42   2 1.56
   7  0.688  0.844  0.250-   6 1.42   8 1.42   1 1.56
   8  0.846  0.685  0.250-   7 1.42   5 1.42   2 1.56

IMPORTANT INFORMATION: All symmetrisations will be switched off!
NOSYMM: (Re-)initialisation of all symmetry stuff for point group C_1.

                                     Primitive cell

  volume of cell :     347.0843

  direct lattice vectors                    reciprocal lattice vectors
     4.476485000  2.584500000  0.000000000     0.111694778  0.193461018  0.000000000
    -4.476485000  2.584500000  0.000000000    -0.111694778  0.193461018  0.000000000
     0.000000000  0.000000000 15.000000000     0.000000000  0.000000000  0.066666667

  length of vectors
     5.168999730  5.168999730 15.000000000     0.223389545  0.223389545  0.066666667

  position of ions in fractional coordinates (direct lattice)
     0.338334189  0.669165089  0.250000000
     0.671666315  0.335831896  0.250000000
     0.163745918  0.319999521  0.250000000
     0.322499481  0.161250266  0.250000000
     0.163754286  0.843749176  0.250000000
     0.846244180  0.161250584  0.250000000
     0.687500016  0.843750111  0.250000000
     0.846251614  0.684999356  0.250000000

  ion indices of the primitive-cell ions
   primitive index   ion index
                 1           1
                 2           2
                 3           3
                 4           4
                 5           5
                 6           6
                 7           7
                 8           8

 KPOINTS: K-points

Interpolating k-points between supplied coordinates.

 Line segments in fractional coordinates (reciprocal lattice):
    0.000000  0.000000  0.000000  ...  0.333000  0.333000  0.000000
    0.333000  0.333000  0.000000  ...  0.000000  0.500000  0.000000
    0.000000  0.500000  0.000000  ...  0.000000  0.000000  0.000000

 Generated   128 points on each line segment, for a total of    384 k-points:

 Following reciprocal coordinates:
            Coordinates               Weight
  0.000000  0.000000  0.000000      0.002604
  0.002622  0.002622  0.000000      0.002604
  0.005244  0.005244  0.000000      0.002604
  0.007866  0.007866  0.000000      0.002604
  0.010488  0.010488  0.000000      0.002604
  0.013110  0.013110  0.000000      0.002604
  0.015732  0.015732  0.000000      0.002604
  0.018354  0.018354  0.000000      0.002604
  0.020976  0.020976  0.000000      0.002604
  0.023598  0.023598  0.000000      0.002604
  0.026220  0.026220  0.000000      0.002604
  0.028843  0.028843  0.000000      0.002604
  0.031465  0.031465  0.000000      0.002604
  0.034087  0.034087  0.000000      0.002604
  0.036709  0.036709  0.000000      0.002604
  0.039331  0.039331  0.000000      0.002604
  0.041953  0.041953  0.000000      0.002604
  0.044575  0.044575  0.000000      0.002604
  0.047197  0.047197  0.000000      0.002604
  0.049819  0.049819  0.000000      0.002604
  0.052441  0.052441  0.000000      0.002604
  0.055063  0.055063  0.000000      0.002604
  0.057685  0.057685  0.000000      0.002604
  0.060307  0.060307  0.000000      0.002604
  0.062929  0.062929  0.000000      0.002604
  0.065551  0.065551  0.000000      0.002604
  0.068173  0.068173  0.000000      0.002604
  0.070795  0.070795  0.000000      0.002604
  0.073417  0.073417  0.000000      0.002604
  0.076039  0.076039  0.000000      0.002604
  0.078661  0.078661  0.000000      0.002604
  0.081283  0.081283  0.000000      0.002604
  0.083906  0.083906  0.000000      0.002604
  0.086528  0.086528  0.000000      0.002604
  0.089150  0.089150  0.000000      0.002604
  0.091772  0.091772  0.000000      0.002604
  0.094394  0.094394  0.000000      0.002604
  0.097016  0.097016  0.000000      0.002604
  0.099638  0.099638  0.000000      0.002604
  0.102260  0.102260  0.000000      0.002604
  0.104882  0.104882  0.000000      0.002604
  0.107504  0.107504  0.000000      0.002604
  0.110126  0.110126  0.000000      0.002604
  0.112748  0.112748  0.000000      0.002604
  0.115370  0.115370  0.000000      0.002604
  0.117992  0.117992  0.000000      0.002604
  0.120614  0.120614  0.000000      0.002604
  0.123236  0.123236  0.000000      0.002604
  0.125858  0.125858  0.000000      0.002604
  0.128480  0.128480  0.000000      0.002604
  0.131102  0.131102  0.000000      0.002604
  0.133724  0.133724  0.000000      0.002604
  0.136346  0.136346  0.000000      0.002604
  0.138969  0.138969  0.000000      0.002604
  0.141591  0.141591  0.000000      0.002604
  0.144213  0.144213  0.000000      0.002604
  0.146835  0.146835  0.000000      0.002604
  0.149457  0.149457  0.000000      0.002604
  0.152079  0.152079  0.000000      0.002604
  0.154701  0.154701  0.000000      0.002604
[...]
  0.000000  0.055118  0.000000      0.002604
  0.000000  0.051181  0.000000      0.002604
  0.000000  0.047244  0.000000      0.002604
  0.000000  0.043307  0.000000      0.002604
  0.000000  0.039370  0.000000      0.002604
  0.000000  0.035433  0.000000      0.002604
  0.000000  0.031496  0.000000      0.002604
  0.000000  0.027559  0.000000      0.002604
  0.000000  0.023622  0.000000      0.002604
  0.000000  0.019685  0.000000      0.002604
  0.000000  0.015748  0.000000      0.002604
  0.000000  0.011811  0.000000      0.002604
  0.000000  0.007874  0.000000      0.002604
  0.000000  0.003937  0.000000      0.002604
  0.000000  0.000000  0.000000      0.002604

 Following cartesian coordinates:
            Coordinates               Weight
  0.000000  0.000000  0.000000      0.002604
 -0.000000  0.001015  0.000000      0.002604
 -0.000000  0.002029  0.000000      0.002604
  0.000000  0.003044  0.000000      0.002604
 -0.000000  0.004058  0.000000      0.002604
 -0.000000  0.005073  0.000000      0.002604
  0.000000  0.006087  0.000000      0.002604
  0.000000  0.007102  0.000000      0.002604
 -0.000000  0.008116  0.000000      0.002604
  0.000000  0.009131  0.000000      0.002604
 -0.000000  0.010145  0.000000      0.002604
 -0.000000  0.011160  0.000000      0.002604
  0.000000  0.012174  0.000000      0.002604
 -0.000000  0.013189  0.000000      0.002604
  0.000000  0.014203  0.000000      0.002604
 -0.000000  0.015218  0.000000      0.002604
 -0.000000  0.016232  0.000000      0.002604
  0.000000  0.017247  0.000000      0.002604
  0.000000  0.018262  0.000000      0.002604
 -0.000000  0.019276  0.000000      0.002604
 -0.000000  0.020291  0.000000      0.002604
  0.000000  0.021305  0.000000      0.002604
 -0.000000  0.022320  0.000000      0.002604
 -0.000000  0.023334  0.000000      0.002604
  0.000000  0.024349  0.000000      0.002604
 -0.000000  0.025363  0.000000      0.002604
 -0.000000  0.026378  0.000000      0.002604
 -0.000000  0.027392  0.000000      0.002604
  0.000000  0.028407  0.000000      0.002604
 -0.000000  0.029421  0.000000      0.002604
 -0.000000  0.030436  0.000000      0.002604
  0.000000  0.031450  0.000000      0.002604
 -0.000000  0.032465  0.000000      0.002604
  0.000000  0.033479  0.000000      0.002604
  0.000000  0.034494  0.000000      0.002604
 -0.000000  0.035508  0.000000      0.002604
  0.000000  0.036523  0.000000      0.002604
  0.000000  0.037538  0.000000      0.002604
 -0.000000  0.038552  0.000000      0.002604
  0.000000  0.039567  0.000000      0.002604
 -0.000000  0.040581  0.000000      0.002604
 -0.000000  0.041596  0.000000      0.002604
  0.000000  0.042610  0.000000      0.002604
 -0.000000  0.043625  0.000000      0.002604
 -0.000000  0.044639  0.000000      0.002604
  0.000000  0.045654  0.000000      0.002604
 -0.000000  0.046668  0.000000      0.002604
  0.000000  0.047683  0.000000      0.002604
  0.000000  0.048697  0.000000      0.002604
 -0.000000  0.049712  0.000000      0.002604
 -0.000000  0.050726  0.000000      0.002604
  0.000000  0.051741  0.000000      0.002604
 -0.000000  0.052755  0.000000      0.002604
  0.000000  0.053770  0.000000      0.002604
 -0.000000  0.054785  0.000000      0.002604
  0.000000  0.055799  0.000000      0.002604
  0.000000  0.056814  0.000000      0.002604
 -0.000000  0.057828  0.000000      0.002604
 -0.000000  0.058843  0.000000      0.002604
 -0.000000  0.059857  0.000000      0.002604
[...]
 -0.006156  0.010663  0.000000      0.002604
 -0.005717  0.009902  0.000000      0.002604
 -0.005277  0.009140  0.000000      0.002604
 -0.004837  0.008378  0.000000      0.002604
 -0.004397  0.007617  0.000000      0.002604
 -0.003958  0.006855  0.000000      0.002604
 -0.003518  0.006093  0.000000      0.002604
 -0.003078  0.005332  0.000000      0.002604
 -0.002638  0.004570  0.000000      0.002604
 -0.002199  0.003808  0.000000      0.002604
 -0.001759  0.003047  0.000000      0.002604
 -0.001319  0.002285  0.000000      0.002604
 -0.000879  0.001523  0.000000      0.002604
 -0.000440  0.000762  0.000000      0.002604
 -0.000000  0.000000  0.000000      0.002604

 SYSTEM =  BS
 POSCAR =  BC3 with lattice parameter 5.169

 Startparameter for this run:
   NWRITE =      2    write-flag & timer
   PREC   = accura    normal or accurate (medium, high low for compatibility)
   ISTART =      0    job   : 0-new  1-cont  2-samecut
   ICHARG =     11    charge: 1-file 2-atom 10-const
   ISPIN  =      1    spin polarized calculation?
   LNONCOLLINEAR =      F non collinear calculations
   LSORBIT =      F    spin-orbit coupling
   INIWAV =      1    electr: 0-lowe 1-rand  2-diag
   LASPH  =      F    aspherical Exc in radial PAW
 Electronic Relaxation 1
   ENCUT  =  450.0 eV  33.07 Ry    5.75 a.u.   8.94  8.94 25.95*2*pi/ulx,y,z
[...]
 k-point   5 :   0.0105 0.0105 0.0000  plane waves:    7477
 k-point   6 :   0.0131 0.0131 0.0000  plane waves:    7481
 k-point   7 :   0.0157 0.0157 0.0000  plane waves:    7485
 k-point   8 :   0.0184 0.0184 0.0000  plane waves:    7489
 k-point   9 :   0.0210 0.0210 0.0000  plane waves:    7485
 k-point  10 :   0.0236 0.0236 0.0000  plane waves:    7489
 k-point  11 :   0.0262 0.0262 0.0000  plane waves:    7493
 k-point  12 :   0.0288 0.0288 0.0000  plane waves:    7501
 k-point  13 :   0.0315 0.0315 0.0000  plane waves:    7489
 k-point  14 :   0.0341 0.0341 0.0000  plane waves:    7493
 k-point  15 :   0.0367 0.0367 0.0000  plane waves:    7491
 k-point  16 :   0.0393 0.0393 0.0000  plane waves:    7497
 k-point  17 :   0.0420 0.0420 0.0000  plane waves:    7497
 k-point  18 :   0.0446 0.0446 0.0000  plane waves:    7495
 k-point  19 :   0.0472 0.0472 0.0000  plane waves:    7495
 k-point  20 :   0.0498 0.0498 0.0000  plane waves:    7493
 k-point  21 :   0.0524 0.0524 0.0000  plane waves:    7497
 k-point  22 :   0.0551 0.0551 0.0000  plane waves:    7501
 k-point  23 :   0.0577 0.0577 0.0000  plane waves:    7505
 k-point  24 :   0.0603 0.0603 0.0000  plane waves:    7505
 k-point  25 :   0.0629 0.0629 0.0000  plane waves:    7505
 k-point  26 :   0.0656 0.0656 0.0000  plane waves:    7497
 k-point  27 :   0.0682 0.0682 0.0000  plane waves:    7501
 k-point  28 :   0.0708 0.0708 0.0000  plane waves:    7499
 k-point  29 :   0.0734 0.0734 0.0000  plane waves:    7497
 k-point  30 :   0.0760 0.0760 0.0000  plane waves:    7501
 k-point  31 :   0.0787 0.0787 0.0000  plane waves:    7505
 k-point  32 :   0.0813 0.0813 0.0000  plane waves:    7509
 k-point  33 :   0.0839 0.0839 0.0000  plane waves:    7509
 k-point  34 :   0.0865 0.0865 0.0000  plane waves:    7501
 k-point  35 :   0.0891 0.0891 0.0000  plane waves:    7497
 k-point  36 :   0.0918 0.0918 0.0000  plane waves:    7503
 k-point  37 :   0.0944 0.0944 0.0000  plane waves:    7507
 k-point  38 :   0.0970 0.0970 0.0000  plane waves:    7503
 k-point  39 :   0.0996 0.0996 0.0000  plane waves:    7507
 k-point  40 :   0.1023 0.1023 0.0000  plane waves:    7507
 k-point  41 :   0.1049 0.1049 0.0000  plane waves:    7503
 k-point  42 :   0.1075 0.1075 0.0000  plane waves:    7499
 k-point  43 :   0.1101 0.1101 0.0000  plane waves:    7495
 k-point  44 :   0.1127 0.1127 0.0000  plane waves:    7495
 k-point  45 :   0.1154 0.1154 0.0000  plane waves:    7497
 k-point  46 :   0.1180 0.1180 0.0000  plane waves:    7497
 k-point  47 :   0.1206 0.1206 0.0000  plane waves:    7501
 k-point  48 :   0.1232 0.1232 0.0000  plane waves:    7499
 k-point  49 :   0.1259 0.1259 0.0000  plane waves:    7501
 k-point  50 :   0.1285 0.1285 0.0000  plane waves:    7517
 k-point  51 :   0.1311 0.1311 0.0000  plane waves:    7513
 k-point  52 :   0.1337 0.1337 0.0000  plane waves:    7515
 k-point  53 :   0.1363 0.1363 0.0000  plane waves:    7511
 k-point  54 :   0.1390 0.1390 0.0000  plane waves:    7509
 k-point  55 :   0.1416 0.1416 0.0000  plane waves:    7509
 k-point  56 :   0.1442 0.1442 0.0000  plane waves:    7505
 k-point  57 :   0.1468 0.1468 0.0000  plane waves:    7505
 k-point  58 :   0.1495 0.1495 0.0000  plane waves:    7509
 k-point  59 :   0.1521 0.1521 0.0000  plane waves:    7513
 k-point  60 :   0.1547 0.1547 0.0000  plane waves:    7511
[...]
 k-point 370 :   0.0000 0.0551 0.0000  plane waves:    7495
 k-point 371 :   0.0000 0.0512 0.0000  plane waves:    7495
 k-point 372 :   0.0000 0.0472 0.0000  plane waves:    7499
 k-point 373 :   0.0000 0.0433 0.0000  plane waves:    7499
 k-point 374 :   0.0000 0.0394 0.0000  plane waves:    7495
 k-point 375 :   0.0000 0.0354 0.0000  plane waves:    7487
 k-point 376 :   0.0000 0.0315 0.0000  plane waves:    7483
 k-point 377 :   0.0000 0.0276 0.0000  plane waves:    7479
 k-point 378 :   0.0000 0.0236 0.0000  plane waves:    7483
 k-point 379 :   0.0000 0.0197 0.0000  plane waves:    7475
 k-point 380 :   0.0000 0.0157 0.0000  plane waves:    7475
 k-point 381 :   0.0000 0.0118 0.0000  plane waves:    7493
 k-point 382 :   0.0000 0.0079 0.0000  plane waves:    7497
 k-point 383 :   0.0000 0.0039 0.0000  plane waves:    7497
 k-point 384 :   0.0000 0.0000 0.0000  plane waves:    7497

 maximum and minimum number of plane-waves per node :      7571     7475

 maximum number of plane-waves:      7571
 maximum index in each direction:
   IXMAX=    8   IYMAX=    8   IZMAX=   25
   IXMIN=   -9   IYMIN=   -9   IZMIN=  -25

 serial   3D FFT for wavefunctions
 parallel 3D FFT for charge:
    minimum data exchange during FFTs selected (reduces bandwidth)

 initial charge density was supplied:
 number of electron      29.9999999 magnetization
 keeping initial charge density in first step

 Maximum index for augmentation-charges          367 (set IRDMAX)

 First call to EWALD:  gamma=   0.252
 Maximum number of real-space cells 4x 4x 2
 Maximum number of reciprocal cells 2x 2x 5

--------------------------------------- Iteration      1(   1)  ---------------------------------------

 eigenvalue-minimisations  : 36864
 total energy-change (2. order) : 0.7925939E+02  (-0.1126561E+04)
 number of electron      29.9999999 magnetization
 augmentation part       29.9999999 magnetization

 Free energy of the ion-electron system (eV)
  alpha Z        PSCENC =        14.61461864
  Ewald energy   TEWEN  =      2603.47407329
  -Hartree energ DENC   =     -3498.85759866
  -exchange      EXHF   =         0.00000000
  -V(xc)+E(xc)   XCENC  =        96.07901905
  PAW double counting   =      2906.41295563    -2908.94547727
  entropy T*S    EENTRO =        -0.01850614
  eigenvalues    EBANDS =      -158.70359122
  atomic energy  EATOM  =      1025.20389953
  Solvation  Ediel_sol  =         0.00000000
  free energy    TOTEN  =        79.25939284 eV

  energy without entropy =       79.27789898  energy(sigma->0) =       79.26864591

[...]

 eigenvalue-minimisations  : 54432
 total energy-change (2. order) :-0.1416298E+03  (-0.1405248E+03)
 number of electron      29.9999999 magnetization
 augmentation part       29.9999999 magnetization

[...]

--------------------------------------- Iteration      1(   6)  ---------------------------------------

 eigenvalue-minimisations  : 56112
 total energy-change (2. order) :-0.1015542E-07  (-0.1071423E-07)
 number of electron      29.9999999 magnetization
 augmentation part       29.9999999 magnetization

 Free energy of the ion-electron system (eV)
  alpha Z        PSCENC =        14.61461864
  Ewald energy   TEWEN  =      2603.47407329
  -Hartree energ DENC   =     -3498.85759866
  -exchange      EXHF   =         0.00000000
  -V(xc)+E(xc)   XCENC  =        96.07901905
  PAW double counting   =      2906.41295563    -2908.94547727
  entropy T*S    EENTRO =        -0.00000030
  eigenvalues    EBANDS =      -304.92899156
  atomic energy  EATOM  =      1025.20389953
  Solvation  Ediel_sol  =         0.00000000
  free energy    TOTEN  =       -66.94750166 eV

  energy without entropy =      -66.94750136  energy(sigma->0) =      -66.94750151

 average (electrostatic) potential at core
  the test charge radii are     0.7672  0.6991
  (the norm of the test charge is              1.0000)
       1 -34.5613       2 -34.5613       3 -57.0715       4 -57.0714       5 -57.0715
       6 -57.0714       7 -57.0713       8 -57.0715

 E-fermi :  -3.4718     XC(G=0):  -2.7960     alpha+bet : -2.3721

 Fermi energy:        -3.4717678759

 k-point     1 :       0.0000    0.0000    0.0000
  band No.  band energies     occupation
      1     -19.8848      2.00000
      2     -15.9832      2.00000
      3     -15.9831      2.00000
      4     -13.6419      2.00000
      5     -13.6418      2.00000
      6     -12.5734      2.00000
      7     -11.2501      2.00000
      8      -8.6887      2.00000
      9      -8.4567      2.00000
     10      -6.3044      2.00000
     11      -6.3042      2.00000
     12      -4.4808      2.00000
     13      -4.4807      2.00000
     14      -3.7920      1.99999
     15      -3.7918      1.99999
     16      -1.9640      0.00000
     17      -0.2278      0.00000
     18      -0.2278      0.00000
     19       0.4316      0.00000
     20       0.8390      0.00000
     21       1.8411      0.00000
     22       2.2401      0.00000
     23       4.2200      0.00000
     24       4.8452      0.00000
     25       5.0089      0.00000
     26       5.0090      0.00000
     27       6.2961      0.00000
     28       6.7702      0.00000
     29       6.7704      0.00000
     30       7.8735      0.00000
     31       8.0489      0.00000
     32       8.0489      0.00000
     33       8.1259      0.00000
     34       8.2152      0.00000
     35       8.2152      0.00000
     36       8.3636      0.00000
     37       8.7400      0.00000
     38       8.7400      0.00000
     39       8.8204      0.00000
     40       8.9968      0.00000
     41       8.9968      0.00000
     42       9.1825      0.00000
     43       9.3255      0.00000
     44       9.5221      0.00000
     45       9.5237      0.00000
     46       9.6575      0.00000
     47       9.6576      0.00000
     48       9.6926      0.00000

[...]

 k-point   384 :       0.0000    0.0000    0.0000
  band No.  band energies     occupation
      1     -19.8848      2.00000
      2     -15.9832      2.00000
      3     -15.9831      2.00000
      4     -13.6419      2.00000
      5     -13.6418      2.00000
      6     -12.5734      2.00000
      7     -11.2501      2.00000
      8      -8.6887      2.00000
      9      -8.4567      2.00000
     10      -6.3044      2.00000
     11      -6.3042      2.00000
     12      -4.4808      2.00000
     13      -4.4807      2.00000
     14      -3.7920      1.99999
     15      -3.7918      1.99999
     16      -1.9640      0.00000
     17      -0.2278      0.00000
     18      -0.2278      0.00000
     19       0.4316      0.00000
     20       0.8390      0.00000
     21       1.8411      0.00000
     22       2.2401      0.00000
     23       4.2200      0.00000
     24       4.8452      0.00000
     25       5.0089      0.00000
     26       5.0090      0.00000
     27       6.2961      0.00000
     28       6.7702      0.00000
     29       6.7704      0.00000
     30       7.8735      0.00000
     31       8.0489      0.00000
     32       8.0489      0.00000
     33       8.1259      0.00000
     34       8.2152      0.00000
     35       8.2152      0.00000
     36       8.3636      0.00000
     37       8.7400      0.00000
     38       8.7400      0.00000
     39       8.8204      0.00000
     40       8.9968      0.00000
     41       8.9968      0.00000
     42       9.1825      0.00000
     43       9.3255      0.00000
     44       9.5221      0.00000
     45       9.5235      0.00000
     46       9.6575      0.00000
     47       9.6577      0.00000
     48       9.6925      0.00000

 soft charge-density along one line, spin component           1
         0         1         2         3         4         5         6         7         8         9
 total charge-density along one line

------------------------ aborting loop because EDIFF is reached ----------------------------------------

 total charge

# of ion       s       p       d       tot
    1        0.754   1.304   0.000   2.058
    2        0.754   1.304   0.000   2.058
    3        0.875   1.698   0.000   2.573
    4        0.874   1.752   0.000   2.626
    5        0.874   1.765   0.000   2.639
    6        0.874   1.765   0.000   2.639
    7        0.874   1.752   0.000   2.626
    8        0.875   1.698   0.000   2.573
tot          6.754  13.038   0.000  19.792

         DFTD3 V3.0 Rev 1
 IVDW         = 12
 DF pbe
 parameters
 VDW_S6       =    1.0000
 VDW_S8       =    0.7875
 VDW_A1       =    0.4289
 VDW_A2       =    4.4407
 k1-k3        =   16.0000    1.3333   -4.0000
 VDW_RADIUS   =   50.2022 A
 VDW_CNRADIUS =   21.1671 A
 Edisp (eV)   -0.67804

 E6    (eV) :    -0.4579
 E8    (eV) :    -0.2201
 % E8        : 32.46

  FORCE on cell =-STRESS in cart. coord.  units (eV):
  Direction    XX          YY          ZZ          XY          YZ          ZX
  Alpha Z    14.61462    14.61462    14.61462
  Ewald    3501.19577  3501.18498 -4398.90803    -0.00122    -0.00000     0.00000
  Hartree  3441.09337  3441.45161 -3381.94305    -0.29622    -0.00000    -0.00000
  E(xc)    -107.51077  -107.47255  -111.31635    -0.02190    -0.00000     0.00000
  Local   -7260.81059 -7257.86534  7444.58463    -1.47122     0.00000     0.00000
  n-local   -22.51359   -22.06537   -10.94422    -0.25669    -0.00000     0.00000
  augment    -1.83243    -1.84416    -1.82215     0.00672     0.00000     0.00000
  Kinetic   437.65188   431.85561   446.20038     3.79601     0.00000    -0.00000
  Fock        0.00000     0.00000     0.00000     0.00000     0.00000     0.00000
  vdW        -0.54285    -0.54284    -0.00593     0.00000     0.00000    -0.00000
  Total       1.34540    -0.68345     0.45991     1.75549     0.00000     0.00000
  in kB       6.21052    -3.15486     2.12299     8.10354     0.00000     0.00000

 VOLUME and BASIS-vectors are now :
  energy-cutoff  :      450.00
  volume of cell :      347.08
      direct lattice vectors                 reciprocal lattice vectors
     4.476485000  2.584500000  0.000000000     0.111694778  0.193461018  0.000000000
    -4.476485000  2.584500000  0.000000000    -0.111694778  0.193461018  0.000000000
     0.000000000  0.000000000 15.000000000     0.000000000  0.000000000  0.066666667

  length of vectors
     5.168999730  5.168999730 15.000000000     0.223389545  0.223389545  0.066666667

 FORCES acting on ions
    electron-ion (+dipol)            ewald-force                    non-local-force                 convergence-correction
   -.463E+00 0.449E+00 0.149E-06   0.194E-02 -.173E-03 -.103E-18   -.518E+00 0.573E+00 -.871E-08   0.498E+00 -.551E+00 0.111E-07
   0.465E+00 -.449E+00 0.285E-07   -.458E-02 0.486E-03 0.182E-18   0.518E+00 -.573E+00 -.973E-08   -.498E+00 0.551E+00 0.484E-08
   0.255E+02 -.451E+02 -.290E-06   -.276E+02 0.478E+02 -.120E-18   0.243E+01 -.387E+01 -.386E-08   -.101E+00 0.745E+00 0.226E-07
   -.236E+02 -.459E+02 -.403E-06   0.276E+02 0.478E+02 0.758E-18   -.257E+01 -.298E+01 -.388E-07   -.115E+01 0.859E+00 0.905E-08
   -.513E+02 0.200E+01 -.241E-08   0.551E+02 -.522E-03 -.197E-18   -.366E+01 -.572E+00 0.116E-07   -.592E-02 -.114E+01 0.586E-08
   0.513E+02 -.200E+01 -.149E-06   -.551E+02 0.308E-03 0.100E-18   0.366E+01 0.572E+00 0.352E-07   0.643E-02 0.114E+01 0.280E-08
   0.236E+02 0.459E+02 0.320E-06   -.276E+02 -.478E+02 -.329E-18   0.257E+01 0.298E+01 -.383E-07   0.115E+01 -.859E+00 -.938E-08
   -.255E+02 0.451E+02 0.426E-07   0.276E+02 -.478E+02 -.272E-18   -.243E+01 0.387E+01 -.425E-07   0.101E+00 -.745E+00 -.118E-08
   0.112E-03 -.858E-04 -.304E-06   -.711E-14 0.000E+00 0.195E-19   0.287E-03 0.565E-03 -.952E-07   -.768E-04 0.264E-04 0.457E-07

 POSITION                                       TOTAL-FORCE (eV/Angst)
     -1.48096      2.60388      3.75000        -0.481002      0.470708      0.000000
      1.50336      2.60388      3.75000         0.480076     -0.470767      0.000000
     -0.69947      1.25024      3.75000         0.253067     -0.464010     -0.000000
      0.72183      1.25025      3.75000         0.224400     -0.207284     -0.000000
     -3.04399      2.60389      3.75000         0.169052      0.284352      0.000000
      3.06636      2.60387      3.75000        -0.169174     -0.284089     -0.000000
     -0.69945      3.95752      3.75000        -0.224239      0.206860      0.000000
      0.72184      3.95752      3.75000        -0.252180      0.464230      0.000000
    total drift:                                0.000322      0.000506     -0.000000

  FREE ENERGIE OF THE ION-ELECTRON SYSTEM (eV)
  free  energy   TOTEN  =       -67.62553873 eV

  energy  without entropy=      -67.62553843  energy(sigma->0) =      -67.62553858

 stress matrix after NEB project (eV)
      1.34540      1.75549      0.00000
      1.75549     -0.68345      0.00000
      0.00000      0.00000      0.45991
  FORCES: max atom, RMS     0.673000    0.483300
  FORCE total and by dimension    1.366980    0.481002
  Stress total and by dimension    2.941468    1.755493
 writing wavefunctions

 total charge

# of ion       s       p       d       tot
    1        0.754   1.304   0.000   2.058
    2        0.754   1.304   0.000   2.058
    3        0.875   1.698   0.000   2.573
    4        0.874   1.752   0.000   2.626
    5        0.874   1.765   0.000   2.639
    6        0.874   1.765   0.000   2.639
    7        0.874   1.752   0.000   2.626
    8        0.875   1.698   0.000   2.573
tot          6.754  13.038   0.000  19.792