 vasp.6.3.2 27Jun22 (build Dec 22 2022 13:13:19) complex

 executed on             LinuxIFC date 2023.11.05  13:11:55

 INCAR:
   SYSTEM = BS
   ISTART = 0
   ICHARG = 11
   PREC = Accurate
   LORBIT = 11
   ENCUT = 450
   ALGO = Normal
   NELM = 64
   EDIFF = 1E-6
   EDIFFG = -1E-3
   SIGMA = 0.1
   ISMEAR = 0
   GGA = PE
   IVDW = 12
   ISYM = 0

 POTCAR:    PAW_PBE B 06Sep2000
 POTCAR:    PAW_PBE B 06Sep2000
   VRHFIN =B: s2p1

   TITEL  = PAW_PBE B 06Sep2000
   POMASS =   10.811; ZVAL   =    3.000    mass and valenz
   ENMAX  =  318.614; ENMIN  =  238.960 eV

  PAW_PBE B 06Sep2000                   :

 POSCAR: Borophene with lattice parameter 5.051
  positions in direct lattice
  velocities in cartesian coordinates
 exchange correlation table for  LEXCH =        8
   RHO(1)=    0.500       N(1)  =     2000
   RHO(2)=  100.500       N(2)  =     4000

 VTST: version 4.2, (08/11/21)

 CHAIN: initializing optimizer

 OPT: Using VASP Dynamics algorithm
 CHAIN: Read ICHAIN            0

 POSCAR: Borophene with lattice parameter 5.051
  positions in direct lattice
  velocities in cartesian coordinates

 ion  position               nearest neighbor table
   1  0.669  0.000  0.100-   3 1.67   6 1.67   7 1.69   8 1.69   2 1.71
   2  0.331  0.000  0.100-   5 1.67   4 1.67   7 1.69   8 1.69   1 1.71
   3  0.000  0.331  0.100-   5 1.67   1 1.67   8 1.69   7 1.69   4 1.71
   4  0.000  0.669  0.100-   2 1.67   6 1.67   8 1.69   7 1.69   3 1.71
   5  0.331  0.331  0.100-   2 1.67   3 1.67   7 1.69   8 1.69   6 1.71
   6  0.669  0.669  0.100-   1 1.67   4 1.67   7 1.69   8 1.69   5 1.71
   7  0.667  0.333  0.100-   1 1.69   5 1.69   6 1.69   2 1.69   4 1.69   3 1.69
   8  0.333  0.667  0.100-   4 1.69   5 1.69   6 1.69   3 1.69   1 1.69   2 1.69

IMPORTANT INFORMATION: All symmetrisations will be switched off!
NOSYMM: (Re-)initialisation of all symmetry stuff for point group C_1.

                                     Primitive cell

  volume of cell :     331.4184

  direct lattice vectors                    reciprocal lattice vectors
     4.374294000  2.525500000  0.000000000     0.114304160  0.197980598  0.000000000
    -4.374294000  2.525500000  0.000000000    -0.114304160  0.197980598  0.000000000
     0.000000000  0.000000000 15.000000000     0.000000000  0.000000000  0.066666667

  length of vectors
     5.050999728  5.050999728 15.000000000     0.228608307  0.228608307  0.066666667

  position of ions in fractional coordinates (direct lattice)
     0.668931733  1.000000000  0.100000000
     0.331067267  1.000000000  0.100000000
     1.000000000  0.331067267  0.100000000
     1.000000000  0.668931733  0.100000000
     0.331067267  0.331067267  0.100000000
     0.668931733  0.668931733  0.100000000
     0.666666000  0.333333000  0.099956110
     0.333333000  0.666666000  0.100043890

  ion indices of the primitive-cell ions
   primitive index   ion index
                 1           1
                 2           2
                 3           3
                 4           4
                 5           5
                 6           6
                 7           7
                 8           8

 KPOINTS: K-points

Interpolating k-points between supplied coordinates.

 Line segments in fractional coordinates (reciprocal lattice):
    0.000000  0.000000  0.000000  ...  0.333000  0.333000  0.000000
    0.333000  0.333000  0.000000  ...  0.000000  0.500000  0.000000
    0.000000  0.500000  0.000000  ...  0.000000  0.000000  0.000000

 Generated   128 points on each line segment, for a total of    384 k-points:

 Following reciprocal coordinates:
            Coordinates               Weight
  0.000000  0.000000  0.000000      0.002604
  0.002622  0.002622  0.000000      0.002604
  0.005244  0.005244  0.000000      0.002604
  0.007866  0.007866  0.000000      0.002604
  0.010488  0.010488  0.000000      0.002604
  0.013110  0.013110  0.000000      0.002604
  0.015732  0.015732  0.000000      0.002604
  0.018354  0.018354  0.000000      0.002604
  0.020976  0.020976  0.000000      0.002604
  0.023598  0.023598  0.000000      0.002604
  0.026220  0.026220  0.000000      0.002604
  0.028843  0.028843  0.000000      0.002604
  0.031465  0.031465  0.000000      0.002604
  0.034087  0.034087  0.000000      0.002604
  0.036709  0.036709  0.000000      0.002604
  0.039331  0.039331  0.000000      0.002604
  0.041953  0.041953  0.000000      0.002604
  0.044575  0.044575  0.000000      0.002604
  0.047197  0.047197  0.000000      0.002604
  0.049819  0.049819  0.000000      0.002604
  0.052441  0.052441  0.000000      0.002604
  0.055063  0.055063  0.000000      0.002604
  0.057685  0.057685  0.000000      0.002604
  0.060307  0.060307  0.000000      0.002604
  0.062929  0.062929  0.000000      0.002604
  0.065551  0.065551  0.000000      0.002604
  0.068173  0.068173  0.000000      0.002604
  0.070795  0.070795  0.000000      0.002604
  0.073417  0.073417  0.000000      0.002604
  0.076039  0.076039  0.000000      0.002604
  0.078661  0.078661  0.000000      0.002604
  0.081283  0.081283  0.000000      0.002604
  0.083906  0.083906  0.000000      0.002604
  0.086528  0.086528  0.000000      0.002604
  0.089150  0.089150  0.000000      0.002604
  0.091772  0.091772  0.000000      0.002604
  0.094394  0.094394  0.000000      0.002604
  0.097016  0.097016  0.000000      0.002604
  0.099638  0.099638  0.000000      0.002604
  0.102260  0.102260  0.000000      0.002604
  0.104882  0.104882  0.000000      0.002604
  0.107504  0.107504  0.000000      0.002604
  0.110126  0.110126  0.000000      0.002604
  0.112748  0.112748  0.000000      0.002604
  0.115370  0.115370  0.000000      0.002604
  0.117992  0.117992  0.000000      0.002604
  0.120614  0.120614  0.000000      0.002604
  0.123236  0.123236  0.000000      0.002604
  0.125858  0.125858  0.000000      0.002604
  0.128480  0.128480  0.000000      0.002604
  0.131102  0.131102  0.000000      0.002604
  0.133724  0.133724  0.000000      0.002604
  0.136346  0.136346  0.000000      0.002604
  0.138969  0.138969  0.000000      0.002604
  0.141591  0.141591  0.000000      0.002604
  0.144213  0.144213  0.000000      0.002604
  0.146835  0.146835  0.000000      0.002604
  0.149457  0.149457  0.000000      0.002604
  0.152079  0.152079  0.000000      0.002604
  0.154701  0.154701  0.000000      0.002604
[...]
  0.000000  0.055118  0.000000      0.002604
  0.000000  0.051181  0.000000      0.002604
  0.000000  0.047244  0.000000      0.002604
  0.000000  0.043307  0.000000      0.002604
  0.000000  0.039370  0.000000      0.002604
  0.000000  0.035433  0.000000      0.002604
  0.000000  0.031496  0.000000      0.002604
  0.000000  0.027559  0.000000      0.002604
  0.000000  0.023622  0.000000      0.002604
  0.000000  0.019685  0.000000      0.002604
  0.000000  0.015748  0.000000      0.002604
  0.000000  0.011811  0.000000      0.002604
  0.000000  0.007874  0.000000      0.002604
  0.000000  0.003937  0.000000      0.002604
  0.000000  0.000000  0.000000      0.002604

 Following cartesian coordinates:
            Coordinates               Weight
  0.000000  0.000000  0.000000      0.002604
 -0.000000  0.001038  0.000000      0.002604
 -0.000000  0.002076  0.000000      0.002604
 -0.000000  0.003115  0.000000      0.002604
 -0.000000  0.004153  0.000000      0.002604
 -0.000000  0.005191  0.000000      0.002604
 -0.000000  0.006229  0.000000      0.002604
 -0.000000  0.007268  0.000000      0.002604
 -0.000000  0.008306  0.000000      0.002604
 -0.000000  0.009344  0.000000      0.002604
 -0.000000  0.010382  0.000000      0.002604
 -0.000000  0.011421  0.000000      0.002604
 -0.000000  0.012459  0.000000      0.002604
 -0.000000  0.013497  0.000000      0.002604
 -0.000000  0.014535  0.000000      0.002604
  0.000000  0.015573  0.000000      0.002604
 -0.000000  0.016612  0.000000      0.002604
  0.000000  0.017650  0.000000      0.002604
 -0.000000  0.018688  0.000000      0.002604
  0.000000  0.019726  0.000000      0.002604
 -0.000000  0.020765  0.000000      0.002604
  0.000000  0.021803  0.000000      0.002604
 -0.000000  0.022841  0.000000      0.002604
  0.000000  0.023879  0.000000      0.002604
 -0.000000  0.024917  0.000000      0.002604
 -0.000000  0.025956  0.000000      0.002604
 -0.000000  0.026994  0.000000      0.002604
 -0.000000  0.028032  0.000000      0.002604
 -0.000000  0.029070  0.000000      0.002604
  0.000000  0.030109  0.000000      0.002604
  0.000000  0.031147  0.000000      0.002604
 -0.000000  0.032185  0.000000      0.002604
 -0.000000  0.033223  0.000000      0.002604
  0.000000  0.034262  0.000000      0.002604
  0.000000  0.035300  0.000000      0.002604
 -0.000000  0.036338  0.000000      0.002604
 -0.000000  0.037376  0.000000      0.002604
  0.000000  0.038414  0.000000      0.002604
  0.000000  0.039453  0.000000      0.002604
 -0.000000  0.040491  0.000000      0.002604
 -0.000000  0.041529  0.000000      0.002604
 -0.000000  0.042567  0.000000      0.002604
  0.000000  0.043606  0.000000      0.002604
  0.000000  0.044644  0.000000      0.002604
 -0.000000  0.045682  0.000000      0.002604
 -0.000000  0.046720  0.000000      0.002604
  0.000000  0.047759  0.000000      0.002604
  0.000000  0.048797  0.000000      0.002604
 -0.000000  0.049835  0.000000      0.002604
 -0.000000  0.050873  0.000000      0.002604
 -0.000000  0.051911  0.000000      0.002604
  0.000000  0.052950  0.000000      0.002604
 -0.000000  0.053988  0.000000      0.002604
  0.000000  0.055026  0.000000      0.002604
 -0.000000  0.056064  0.000000      0.002604
  0.000000  0.057103  0.000000      0.002604
 -0.000000  0.058141  0.000000      0.002604
 -0.000000  0.059179  0.000000      0.002604
  0.000000  0.060217  0.000000      0.002604
 -0.000000  0.061256  0.000000      0.002604
[...]
 -0.006300  0.010912  0.000000      0.002604
 -0.005850  0.010133  0.000000      0.002604
 -0.005400  0.009353  0.000000      0.002604
 -0.004950  0.008574  0.000000      0.002604
 -0.004500  0.007795  0.000000      0.002604
 -0.004050  0.007015  0.000000      0.002604
 -0.003600  0.006236  0.000000      0.002604
 -0.003150  0.005456  0.000000      0.002604
 -0.002700  0.004677  0.000000      0.002604
 -0.002250  0.003897  0.000000      0.002604
 -0.001800  0.003118  0.000000      0.002604
 -0.001350  0.002338  0.000000      0.002604
 -0.000900  0.001559  0.000000      0.002604
 -0.000450  0.000779  0.000000      0.002604
 -0.000000  0.000000  0.000000      0.002604

 SYSTEM =  BS
 POSCAR =  Borophene with lattice parameter 5.051

 Startparameter for this run:
   NWRITE =      2    write-flag & timer
   PREC   = accura    normal or accurate (medium, high low for compatibility)
   ISTART =      0    job   : 0-new  1-cont  2-samecut
   ICHARG =     11    charge: 1-file 2-atom 10-const
   ISPIN  =      1    spin polarized calculation?
   LNONCOLLINEAR =      F non collinear calculations
   LSORBIT =      F    spin-orbit coupling
   INIWAV =      1    electr: 0-lowe 1-rand  2-diag
   LASPH  =      F    aspherical Exc in radial PAW
 Electronic Relaxation 1
   ENCUT  =  450.0 eV  33.07 Ry    5.75 a.u.   8.74  8.74 25.95*2*pi/ulx,y,z
[...]
 k-point   5 :   0.0105 0.0105 0.0000  plane waves:    7155
 k-point   6 :   0.0131 0.0131 0.0000  plane waves:    7165
 k-point   7 :   0.0157 0.0157 0.0000  plane waves:    7161
 k-point   8 :   0.0184 0.0184 0.0000  plane waves:    7165
 k-point   9 :   0.0210 0.0210 0.0000  plane waves:    7165
 k-point  10 :   0.0236 0.0236 0.0000  plane waves:    7167
 k-point  11 :   0.0262 0.0262 0.0000  plane waves:    7173
 k-point  12 :   0.0288 0.0288 0.0000  plane waves:    7173
 k-point  13 :   0.0315 0.0315 0.0000  plane waves:    7179
 k-point  14 :   0.0341 0.0341 0.0000  plane waves:    7187
 k-point  15 :   0.0367 0.0367 0.0000  plane waves:    7187
 k-point  16 :   0.0393 0.0393 0.0000  plane waves:    7187
 k-point  17 :   0.0420 0.0420 0.0000  plane waves:    7187
 k-point  18 :   0.0446 0.0446 0.0000  plane waves:    7193
 k-point  19 :   0.0472 0.0472 0.0000  plane waves:    7193
 k-point  20 :   0.0498 0.0498 0.0000  plane waves:    7189
 k-point  21 :   0.0524 0.0524 0.0000  plane waves:    7189
 k-point  22 :   0.0551 0.0551 0.0000  plane waves:    7189
 k-point  23 :   0.0577 0.0577 0.0000  plane waves:    7185
 k-point  24 :   0.0603 0.0603 0.0000  plane waves:    7185
 k-point  25 :   0.0629 0.0629 0.0000  plane waves:    7185
 k-point  26 :   0.0656 0.0656 0.0000  plane waves:    7181
 k-point  27 :   0.0682 0.0682 0.0000  plane waves:    7181
 k-point  28 :   0.0708 0.0708 0.0000  plane waves:    7185
 k-point  29 :   0.0734 0.0734 0.0000  plane waves:    7189
 k-point  30 :   0.0760 0.0760 0.0000  plane waves:    7189
 k-point  31 :   0.0787 0.0787 0.0000  plane waves:    7187
 k-point  32 :   0.0813 0.0813 0.0000  plane waves:    7187
 k-point  33 :   0.0839 0.0839 0.0000  plane waves:    7191
 k-point  34 :   0.0865 0.0865 0.0000  plane waves:    7207
 k-point  35 :   0.0891 0.0891 0.0000  plane waves:    7211
 k-point  36 :   0.0918 0.0918 0.0000  plane waves:    7203
 k-point  37 :   0.0944 0.0944 0.0000  plane waves:    7199
 k-point  38 :   0.0970 0.0970 0.0000  plane waves:    7199
 k-point  39 :   0.0996 0.0996 0.0000  plane waves:    7201
 k-point  40 :   0.1023 0.1023 0.0000  plane waves:    7197
 k-point  41 :   0.1049 0.1049 0.0000  plane waves:    7193
 k-point  42 :   0.1075 0.1075 0.0000  plane waves:    7193
 k-point  43 :   0.1101 0.1101 0.0000  plane waves:    7189
 k-point  44 :   0.1127 0.1127 0.0000  plane waves:    7189
 k-point  45 :   0.1154 0.1154 0.0000  plane waves:    7181
 k-point  46 :   0.1180 0.1180 0.0000  plane waves:    7181
 k-point  47 :   0.1206 0.1206 0.0000  plane waves:    7177
 k-point  48 :   0.1232 0.1232 0.0000  plane waves:    7181
 k-point  49 :   0.1259 0.1259 0.0000  plane waves:    7185
 k-point  50 :   0.1285 0.1285 0.0000  plane waves:    7183
 k-point  51 :   0.1311 0.1311 0.0000  plane waves:    7179
 k-point  52 :   0.1337 0.1337 0.0000  plane waves:    7183
 k-point  53 :   0.1363 0.1363 0.0000  plane waves:    7175
 k-point  54 :   0.1390 0.1390 0.0000  plane waves:    7187
 k-point  55 :   0.1416 0.1416 0.0000  plane waves:    7193
 k-point  56 :   0.1442 0.1442 0.0000  plane waves:    7189
 k-point  57 :   0.1468 0.1468 0.0000  plane waves:    7187
 k-point  58 :   0.1495 0.1495 0.0000  plane waves:    7187
 k-point  59 :   0.1521 0.1521 0.0000  plane waves:    7187
 k-point  60 :   0.1547 0.1547 0.0000  plane waves:    7191
[...]
 k-point 370 :   0.0000 0.0551 0.0000  plane waves:    7175
 k-point 371 :   0.0000 0.0512 0.0000  plane waves:    7175
 k-point 372 :   0.0000 0.0472 0.0000  plane waves:    7167
 k-point 373 :   0.0000 0.0433 0.0000  plane waves:    7169
 k-point 374 :   0.0000 0.0394 0.0000  plane waves:    7175
 k-point 375 :   0.0000 0.0354 0.0000  plane waves:    7171
 k-point 376 :   0.0000 0.0315 0.0000  plane waves:    7167
 k-point 377 :   0.0000 0.0276 0.0000  plane waves:    7167
 k-point 378 :   0.0000 0.0236 0.0000  plane waves:    7169
 k-point 379 :   0.0000 0.0197 0.0000  plane waves:    7163
 k-point 380 :   0.0000 0.0157 0.0000  plane waves:    7159
 k-point 381 :   0.0000 0.0118 0.0000  plane waves:    7155
 k-point 382 :   0.0000 0.0079 0.0000  plane waves:    7153
 k-point 383 :   0.0000 0.0039 0.0000  plane waves:    7149
 k-point 384 :   0.0000 0.0000 0.0000  plane waves:    7149

 maximum and minimum number of plane-waves per node :      7215     7145

 maximum number of plane-waves:      7215
 maximum index in each direction:
   IXMAX=    8   IYMAX=    8   IZMAX=   25
   IXMIN=   -9   IYMIN=   -9   IZMIN=  -25

 serial   3D FFT for wavefunctions
 parallel 3D FFT for charge:
    minimum data exchange during FFTs selected (reduces bandwidth)

 initial charge density was supplied:
 number of electron      24.0000000 magnetization
 keeping initial charge density in first step

 Maximum index for augmentation-charges          379 (set IRDMAX)

 First call to EWALD:  gamma=   0.256
 Maximum number of real-space cells 4x 4x 2
 Maximum number of reciprocal cells 2x 2x 5

--------------------------------------- Iteration      1(   1)  ---------------------------------------

 eigenvalue-minimisations  : 36864
 total energy-change (2. order) : 0.3627115E+02  (-0.8729270E+03)
 number of electron      24.0000000 magnetization
 augmentation part       24.0000000 magnetization

 Free energy of the ion-electron system (eV)
  alpha Z        PSCENC =        13.28497877
  Ewald energy   TEWEN  =      1756.86243280
  -Hartree energ DENC   =     -2217.79789135
  -exchange      EXHF   =         0.00000000
  -V(xc)+E(xc)   XCENC  =        58.09401181
  PAW double counting   =      2366.07457090    -2359.96769776
  entropy T*S    EENTRO =        -0.01776308
  eigenvalues    EBANDS =      -149.61201113
  atomic energy  EATOM  =       569.35051449
  Solvation  Ediel_sol  =         0.00000000
  free energy    TOTEN  =        36.27114545 eV

  energy without entropy =       36.28890854  energy(sigma->0) =       36.28002700

[...]

 eigenvalue-minimisations  : 56832
 total energy-change (2. order) :-0.8489366E+02  (-0.8375189E+02)
 number of electron      24.0000000 magnetization
 augmentation part       24.0000000 magnetization

[...]

--------------------------------------- Iteration      1(   6)  ---------------------------------------

 eigenvalue-minimisations  : 61824
 total energy-change (2. order) :-0.5305992E-08  (-0.5307966E-08)
 number of electron      24.0000000 magnetization
 augmentation part       24.0000000 magnetization

 Free energy of the ion-electron system (eV)
  alpha Z        PSCENC =        13.28497877
  Ewald energy   TEWEN  =      1756.86243280
  -Hartree energ DENC   =     -2217.79789135
  -exchange      EXHF   =         0.00000000
  -V(xc)+E(xc)   XCENC  =        58.09401181
  PAW double counting   =      2366.07457090    -2359.96769776
  entropy T*S    EENTRO =        -0.00943861
  eigenvalues    EBANDS =      -235.48026764
  atomic energy  EATOM  =       569.35051449
  Solvation  Ediel_sol  =         0.00000000
  free energy    TOTEN  =       -49.58878659 eV

  energy without entropy =      -49.57934798  energy(sigma->0) =      -49.58406729

 average (electrostatic) potential at core
  the test charge radii are     0.7672
  (the norm of the test charge is              1.0000)
       1 -35.5004       2 -35.5005       3 -35.5005       4 -35.5004       5 -35.5005
       6 -35.5004       7 -36.7167       8 -36.7167

 E-fermi :  -2.1819     XC(G=0):  -2.9210     alpha+bet : -2.6791

 Fermi energy:        -2.1818683930

 k-point     1 :       0.0000    0.0000    0.0000
  band No.  band energies     occupation
      1     -17.8889      2.00000
      2     -13.7322      2.00000
      3     -13.6484      2.00000
      4     -13.6484      2.00000
      5     -11.4839      2.00000
      6     -11.4839      2.00000
      7      -9.4134      2.00000
      8      -8.7302      2.00000
      9      -3.8273      2.00000
     10      -3.8273      2.00000
     11      -2.2976      1.89816
     12      -1.7301      0.00000
     13      -1.7301      0.00000
     14      -1.5132      0.00000
     15      -1.5132      0.00000
     16      -1.2557      0.00000
     17      -1.2557      0.00000
     18       0.7815      0.00000
     19       1.6277      0.00000
     20       2.3783      0.00000
     21       2.5170      0.00000
     22       4.3925      0.00000
     23       4.9520      0.00000
     24       5.6969      0.00000
     25       6.3539      0.00000
     26       6.3539      0.00000
     27       6.5930      0.00000
     28       7.5209      0.00000
     29       7.5209      0.00000
     30       8.0519      0.00000
     31       8.3506      0.00000
     32       8.6080      0.00000
     33       9.0123      0.00000
     34       9.1038      0.00000
     35       9.3176      0.00000
     36       9.3625      0.00000
     37       9.3625      0.00000
     38       9.3856      0.00000
     39       9.4350      0.00000
     40       9.4351      0.00000
     41       9.5002      0.00000
     42       9.5342      0.00000
     43       9.5342      0.00000
     44       9.5704      0.00000
     45       9.5704      0.00000
     46      10.3407      0.00000
     47      10.3464      0.00000
     48      10.4155      0.00000

[...]

 k-point   384 :       0.0000    0.0000    0.0000
  band No.  band energies     occupation
      1     -17.8889      2.00000
      2     -13.7322      2.00000
      3     -13.6484      2.00000
      4     -13.6484      2.00000
      5     -11.4839      2.00000
      6     -11.4839      2.00000
      7      -9.4134      2.00000
      8      -8.7302      2.00000
      9      -3.8273      2.00000
     10      -3.8273      2.00000
     11      -2.2976      1.89816
     12      -1.7301      0.00000
     13      -1.7301      0.00000
     14      -1.5132      0.00000
     15      -1.5132      0.00000
     16      -1.2557      0.00000
     17      -1.2557      0.00000
     18       0.7815      0.00000
     19       1.6277      0.00000
     20       2.3783      0.00000
     21       2.5170      0.00000
     22       4.3925      0.00000
     23       4.9520      0.00000
     24       5.6969      0.00000
     25       6.3539      0.00000
     26       6.3539      0.00000
     27       6.5930      0.00000
     28       7.5209      0.00000
     29       7.5209      0.00000
     30       8.0519      0.00000
     31       8.3506      0.00000
     32       8.6080      0.00000
     33       9.0123      0.00000
     34       9.1038      0.00000
     35       9.3176      0.00000
     36       9.3625      0.00000
     37       9.3625      0.00000
     38       9.3856      0.00000
     39       9.4350      0.00000
     40       9.4351      0.00000
     41       9.5002      0.00000
     42       9.5342      0.00000
     43       9.5342      0.00000
     44       9.5704      0.00000
     45       9.5704      0.00000
     46      10.3412      0.00000
     47      10.3468      0.00000
     48      10.4166      0.00000

 soft charge-density along one line, spin component           1
         0         1         2         3         4         5         6         7         8         9
 total charge-density along one line

------------------------ aborting loop because EDIFF is reached ----------------------------------------

 total charge

# of ion       s       p       d       tot
    1        0.710   1.383   0.000   2.093
    2        0.710   1.383   0.000   2.093
    3        0.683   1.402   0.000   2.086
    4        0.683   1.402   0.000   2.086
    5        0.672   1.417   0.000   2.090
    6        0.672   1.417   0.000   2.090
    7        0.673   1.401   0.000   2.073
    8        0.673   1.401   0.000   2.073
tot          5.477  11.207   0.000  16.683

         DFTD3 V3.0 Rev 1
 IVDW         = 12
 DF pbe
 parameters
 VDW_S6       =    1.0000
 VDW_S8       =    0.7875
 VDW_A1       =    0.4289
 VDW_A2       =    4.4407
 k1-k3        =   16.0000    1.3333   -4.0000
 VDW_RADIUS   =   50.2022 A
 VDW_CNRADIUS =   21.1671 A
 Edisp (eV)   -0.66728

 E6    (eV) :    -0.4279
 E8    (eV) :    -0.2394
 % E8        : 35.88

  FORCE on cell =-STRESS in cart. coord.  units (eV):
  Direction    XX          YY          ZZ          XY          YZ          ZX
  Alpha Z    13.28498    13.28498    13.28498
  Ewald    2352.61982  2352.61965 -2948.37789    -0.00000     0.00000    -0.00000
  Hartree  2204.49311  2204.57793 -2190.29223    -0.17198    -0.00071     0.00034
  E(xc)     -76.70182   -76.72337   -79.22729     0.02131    -0.00001     0.00000
  Local   -4728.57921 -4728.69987  4911.42369     0.80983     0.00114    -0.00054
  n-local    -9.16382   -11.71425   -14.35660     1.40697    -0.00017     0.00003
  augment     0.19718     0.18057     0.25097     0.01375    -0.00000     0.00000
  Kinetic   243.90283   249.64114   307.69644    -2.21661     0.00073    -0.00053
  Fock        0.00000     0.00000     0.00000     0.00000     0.00000     0.00000
  vdW        -0.69871    -0.69871    -0.00665     0.00000     0.00000    -0.00000
  Total      -0.64565     2.46807     0.39542    -0.13674     0.00098    -0.00068
  in kB      -3.12126    11.93139     1.91160    -0.66103     0.00473    -0.00329

 VOLUME and BASIS-vectors are now :
  energy-cutoff  :      450.00
  volume of cell :      331.42
      direct lattice vectors                 reciprocal lattice vectors
     4.374294000  2.525500000  0.000000000     0.114304160  0.197980598  0.000000000
    -4.374294000  2.525500000  0.000000000    -0.114304160  0.197980598  0.000000000
     0.000000000  0.000000000 15.000000000     0.000000000  0.000000000  0.066666667

  length of vectors
     5.050999728  5.050999728 15.000000000     0.228608307  0.228608307  0.066666667

 FORCES acting on ions
    electron-ion (+dipol)            ewald-force                    non-local-force                 convergence-correction
   -.258E+02 -.150E+02 0.212E-03   0.283E+02 0.163E+02 0.764E-07   -.235E+01 -.123E+01 -.979E-04   0.250E+00 0.176E+00 -.298E-04
   0.258E+02 0.150E+02 -.207E-03   -.283E+02 -.163E+02 0.145E-06   0.235E+01 0.123E+01 0.992E-04   -.249E+00 -.177E+00 0.307E-04
   -.261E+02 0.147E+02 0.282E-02   0.283E+02 -.163E+02 -.145E-06   -.297E+01 0.122E+01 -.949E-03   0.278E+00 -.341E-02 -.676E-03
   0.261E+02 -.147E+02 -.281E-02   -.283E+02 0.163E+02 -.765E-07   0.297E+01 -.122E+01 0.950E-03   -.279E+00 0.313E-02 0.677E-03
   0.398E+00 0.301E+02 0.261E-02   0.142E-13 -.327E+02 -.627E-11   0.321E+00 0.316E+01 -.852E-03   -.164E+00 -.312E+00 -.646E-03
   -.398E+00 -.301E+02 -.260E-02   0.142E-13 0.327E+02 -.627E-11   -.321E+00 -.316E+01 0.850E-03   0.165E+00 0.312E+00 0.647E-03
   0.156E+00 -.386E+00 0.156E+00   0.211E-03 0.309E-03 -.163E+00   0.275E+00 -.309E+00 0.603E-02   -.379E-01 0.180E+00 0.658E-03
   -.156E+00 0.384E+00 -.156E+00   -.211E-03 0.309E-03 0.163E+00   -.275E+00 0.309E+00 -.602E-02   0.378E-01 -.179E+00 -.658E-03
   0.198E-03 -.849E-03 0.198E-04   -.373E-14 0.320E-15 0.666E-15   -.124E-04 0.149E-03 -.195E-06   -.168E-03 0.642E-03 0.192E-05

 POSITION                                       TOTAL-FORCE (eV/Angst)
      2.92610      1.68939      1.50000         0.374175      0.329505      0.000082
      1.44819      0.83611      1.50000        -0.374261     -0.329346     -0.000080
     -1.44819      0.83611      1.50000        -0.515668     -0.455151      0.001191
     -2.92610      1.68939      1.50000         0.515806      0.455274     -0.001190
      0.00000      1.67222      1.50000         0.553879      0.261741      0.001109
     -0.00000      3.37877      1.50000        -0.553956     -0.261820     -0.001110
      1.45810      2.52550      1.49934         0.393737     -0.514432     -0.000802
     -1.45810      2.52550      1.50066        -0.393712      0.514230      0.000801
    total drift:                                0.000018     -0.000057      0.000022

  FREE ENERGIE OF THE ION-ELECTRON SYSTEM (eV)
  free  energy   TOTEN  =       -50.25606794 eV

  energy  without entropy=      -50.24662933  energy(sigma->0) =      -50.25134863

 stress matrix after NEB project (eV)
     -0.64565     -0.13674     -0.00068
     -0.13674      2.46807      0.00098
     -0.00068      0.00098      0.39542
  FORCES: max atom, RMS     0.687991    0.615767
  FORCE total and by dimension    1.741652    0.553956
  Stress total and by dimension    2.588817    2.468067
 writing wavefunctions

 total charge

# of ion       s       p       d       tot
    1        0.710   1.383   0.000   2.093
    2        0.710   1.383   0.000   2.093
    3        0.683   1.402   0.000   2.086
    4        0.683   1.402   0.000   2.086
    5        0.672   1.417   0.000   2.090
    6        0.672   1.417   0.000   2.090
    7        0.673   1.401   0.000   2.073
    8        0.673   1.401   0.000   2.073
tot          5.477  11.207   0.000  16.683