 vasp.6.3.2 27Jun22 (build May 31 2023 12:07:17) complex

 executed on             LinuxIFC date 2024.03.23  04:21:39

 INCAR:
   SYSTEM = PDoS_HSE06
   ISTART = 1
   ICHARG = 2
   PREC = Accurate
   LORBIT = 11
   NEDOS = 4000
   ENCUT = 450
   ALGO = Damped
   TIME = 0.4
   NELM = 200
   EDIFF = 1E-6
   EDIFFG = -1E-3
   SIGMA = 0.1
   ISMEAR = 0
   IBRION = -1
   GGA = PE
   LHFCALC = .TRUE.
   AEXX = 0.25
   HFSCREEN = 0.2
   NKRED = 1

 POTCAR:    PAW_PBE B 06Sep2000
 POTCAR:    PAW_PBE C 08Apr2002
|           W    W    AA    RRRRR   N    N  II  N    N   GGGG   !!!           |
|           W    W   A  A   R    R  NN   N  II  NN   N  G    G  !!!           |
|           W    W  A    A  R    R  N N  N  II  N N  N  G       !!!           |
|           W WW W  AAAAAA  RRRRR   N  N N  II  N  N N  G  GGG   !            |
|           WW  WW  A    A  R   R   N   NN  II  N   NN  G    G                |
|           W    W  A    A  R    R  N    N  II  N    N   GGGG   !!!           |
|     For optimal performance we recommend to set                             |
|       NCORE = 2 up to number-of-cores-per-socket                            |
|     This setting can greatly improve the performance of VASP for DFT.       |
|     The default, NCORE=1 might be grossly inefficient on modern             |
|     multi-core architectures or massively parallel machines. Do your        |
|     Unfortunately you need to use the default for GW and RPA                |
|     calculations (for HF NCORE is supported but not extensively tested      |
|     yet).                                                                   |

   TITEL  = PAW_PBE B 06Sep2000
   POMASS =   10.811; ZVAL   =    3.000    mass and valenz
   ENMAX  =  318.614; ENMIN  =  238.960 eV

   TITEL  = PAW_PBE C 08Apr2002
   POMASS =   12.011; ZVAL   =    4.000    mass and valenz
   ENMAX  =  400.000; ENMIN  =  300.000 eV

  PAW_PBE B 06Sep2000                   :
  PAW_PBE C 08Apr2002                   :

 POSCAR: Graphene-BC3 Hollow with lattice paramet
  positions in direct lattice
  velocities in cartesian coordinates
 exchange correlation table for  LEXCH =        8
   RHO(1)=    0.500       N(1)  =     2000
   RHO(2)=  100.500       N(2)  =     4000

 ion  position               nearest neighbor table
   1  0.338  0.669  0.113-   7 1.52   5 1.52   3 1.52
   2  0.672  0.336  0.113-   8 1.52   6 1.52   4 1.52
   3  0.164  0.322  0.113-   4 1.39   6 1.39   1 1.52
   4  0.324  0.162  0.113-   5 1.39   3 1.39   2 1.52
   5  0.164  0.843  0.113-   4 1.39   8 1.39   1 1.52
   6  0.845  0.162  0.113-   7 1.39   3 1.39   2 1.52
   7  0.686  0.843  0.113-   6 1.39   8 1.39   1 1.52
   8  0.845  0.683  0.113-   7 1.39   5 1.39   2 1.52
   9  0.333  0.167  0.338-  10 1.46  12 1.46  14 1.46
  10  0.500  0.000  0.338-   9 1.46  13 1.46  11 1.46
  11  0.333  0.667  0.338-  16 1.46  12 1.46  10 1.46
  12  0.500  0.500  0.338-   9 1.46  15 1.46  11 1.46
  13  0.833  0.167  0.338-  16 1.46  10 1.46  14 1.46
  14  0.000  0.000  0.338-   9 1.46  13 1.46  15 1.46
  15  0.833  0.667  0.338-  16 1.46  12 1.46  14 1.46
  16  0.000  0.500  0.338-  15 1.46  13 1.46  11 1.46

  LATTYP: Found a hexagonal cell.
 ALAT       =     5.0440000000
 C/A-ratio  =     2.9738302934

  Lattice vectors:

 A1 = (   4.3682321367,   2.5220000000,   0.0000000000)
 A2 = (  -4.3682321367,   2.5220000000,   0.0000000000)
 A3 = (   0.0000000000,   0.0000000000,  15.0000000000)

Analysis of symmetry for initial positions (statically):
 Subroutine PRICEL returns:
 Original cell was already a primitive cell.

 Routine SETGRP: Setting up the symmetry group for a
 hexagonal supercell.

 Subroutine GETGRP returns: Found  1 space group operations
 (whereof  1 operations were pure point group operations)
 out of a pool of 24 trial point group operations.

The static configuration has the point symmetry C_1 .

Analysis of symmetry for dynamics (positions and initial velocities):
 Subroutine PRICEL returns:
 Original cell was already a primitive cell.

 Routine SETGRP: Setting up the symmetry group for a
 hexagonal supercell.

 Subroutine GETGRP returns: Found  1 space group operations
 (whereof  1 operations were pure point group operations)
 out of a pool of 24 trial point group operations.

The dynamic configuration has the point symmetry C_1 .

 Subroutine INISYM returns: Found  1 space group operations
 (whereof  1 operations are pure point group operations),
 and found     1 'primitive' translations

                                     Primitive cell

  volume of cell :     330.5004

  direct lattice vectors                    reciprocal lattice vectors
     4.368232137  2.522000000  0.000000000     0.114462781  0.198255353  0.000000000
    -4.368232137  2.522000000  0.000000000    -0.114462781  0.198255353  0.000000000
     0.000000000  0.000000000 15.000000000     0.000000000  0.000000000  0.066666667

  length of vectors
     5.044000000  5.044000000 15.000000000     0.228925563  0.228925563  0.066666667

  position of ions in fractional coordinates (direct lattice)
     0.338203334  0.669098661  0.113381622
     0.671538623  0.335766770  0.113066104
     0.164492162  0.321676120  0.113073872
     0.324038669  0.162015918  0.113080124
     0.164492146  0.842809624  0.113074202
     0.845282693  0.162014532  0.113070458
     0.685620398  0.842806916  0.113065505
     0.845283256  0.683261954  0.113070868
     0.333481117  0.166743137  0.338140385
     0.500169288  0.000150954  0.338117411
     0.333461746  0.666733449  0.337831925
     0.500169285  0.500023737  0.338117409
     0.833456475  0.166744471  0.338135786
     0.000131755  0.000068577  0.338120511
     0.833456492  0.666717201  0.338135817
     0.000047897  0.500026647  0.338118001

  ion indices of the primitive-cell ions
   primitive index   ion index
                 1           1
                 2           2
                 3           3
                 4           4
                 5           5
                 6           6
                 7           7
                 8           8
                 9           9
                10          10
                11          11
                12          12
                13          13
                14          14
                15          15
                16          16

 KPOINTS: k-points

Automatic generation of k-mesh.
 Grid dimensions read from file:
 generate k-points for:   17   17    1

 Generating k-lattice:

  Cartesian coordinates                     Fractional coordinates (reciprocal lattice)
     0.006733105  0.011662080  0.000000000     0.058823529  0.000000000  0.000000000
    -0.006733105  0.011662080  0.000000000     0.000000000  0.058823529  0.000000000
     0.000000000  0.000000000  0.066666667     0.000000000  0.000000000  1.000000000

  Length of vectors
     0.013466210  0.013466210  0.066666667

  Shift w.r.t. Gamma in fractional coordinates (k-lattice)
     0.000000000  0.000000000  0.000000000

 Subroutine IBZKPT returns following result:

 Found    145 irreducible k-points:

 Following reciprocal coordinates:
            Coordinates               Weight
  0.000000  0.000000  0.000000      1.000000
  0.058824 -0.000000  0.000000      2.000000
 -0.000000  0.058824  0.000000      2.000000
 -0.058824  0.058824  0.000000      2.000000
  0.117647 -0.000000  0.000000      2.000000
 -0.000000  0.117647  0.000000      2.000000
 -0.117647  0.117647  0.000000      2.000000
  0.176471  0.000000  0.000000      2.000000
  0.000000  0.176471  0.000000      2.000000
 -0.176471  0.176471  0.000000      2.000000
  0.235294 -0.000000  0.000000      2.000000
 -0.000000  0.235294  0.000000      2.000000
 -0.235294  0.235294  0.000000      2.000000
  0.294118 -0.000000  0.000000      2.000000
 -0.000000  0.294118  0.000000      2.000000
 -0.294118  0.294118  0.000000      2.000000
  0.352941  0.000000  0.000000      2.000000
  0.000000  0.352941  0.000000      2.000000
 -0.352941  0.352941  0.000000      2.000000
  0.411765 -0.000000  0.000000      2.000000
 -0.000000  0.411765  0.000000      2.000000
 -0.411765  0.411765  0.000000      2.000000
  0.470588 -0.000000  0.000000      2.000000
 -0.000000  0.470588  0.000000      2.000000
 -0.470588  0.470588  0.000000      2.000000
  0.058824  0.058824  0.000000      2.000000
 -0.058824  0.117647  0.000000      2.000000
 -0.117647  0.058824  0.000000      2.000000
  0.117647  0.058824  0.000000      2.000000
 -0.058824  0.176471  0.000000      2.000000
 -0.176471  0.117647  0.000000      2.000000
 -0.117647  0.176471  0.000000      2.000000
  0.058824  0.117647  0.000000      2.000000
  0.176471 -0.058824  0.000000      2.000000
  0.176471  0.058824  0.000000      2.000000
 -0.058824  0.235294  0.000000      2.000000
 -0.235294  0.176471  0.000000      2.000000
 -0.176471  0.235294  0.000000      2.000000
  0.058824  0.176471  0.000000      2.000000
  0.235294 -0.058824  0.000000      2.000000
  0.235294  0.058824  0.000000      2.000000
 -0.058824  0.294118  0.000000      2.000000
 -0.294118  0.235294  0.000000      2.000000
 -0.235294  0.294118  0.000000      2.000000
  0.058824  0.235294  0.000000      2.000000
  0.294118 -0.058824  0.000000      2.000000
  0.294118  0.058824  0.000000      2.000000
 -0.058824  0.352941  0.000000      2.000000
 -0.352941  0.294118  0.000000      2.000000
 -0.294118  0.352941  0.000000      2.000000
  0.058824  0.294118  0.000000      2.000000
  0.352941 -0.058824  0.000000      2.000000
  0.352941  0.058824  0.000000      2.000000
 -0.058824  0.411765  0.000000      2.000000
 -0.411765  0.352941  0.000000      2.000000
 -0.352941  0.411765  0.000000      2.000000
  0.058824  0.352941  0.000000      2.000000
  0.411765 -0.058824  0.000000      2.000000
  0.411765  0.058824  0.000000      2.000000
 -0.058824  0.470588  0.000000      2.000000
[...]
 -0.294118 -0.470588  0.000000      2.000000
  0.235294  0.294118  0.000000      2.000000
 -0.470588 -0.235294  0.000000      2.000000
  0.352941  0.235294  0.000000      2.000000
 -0.235294 -0.411765  0.000000      2.000000
  0.411765  0.352941  0.000000      2.000000
 -0.352941 -0.411765  0.000000      2.000000
  0.235294  0.352941  0.000000      2.000000
 -0.411765 -0.235294  0.000000      2.000000
  0.294118  0.294118  0.000000      2.000000
 -0.294118 -0.411765  0.000000      2.000000
  0.411765  0.294118  0.000000      2.000000
  0.352941  0.294118  0.000000      2.000000
 -0.294118 -0.352941  0.000000      2.000000
  0.352941  0.352941  0.000000      2.000000

 Following cartesian coordinates:
            Coordinates               Weight
  0.000000  0.000000  0.000000      1.000000
  0.006733  0.011662  0.000000      2.000000
 -0.006733  0.011662  0.000000      2.000000
 -0.013466  0.000000  0.000000      2.000000
  0.013466  0.023324  0.000000      2.000000
 -0.013466  0.023324  0.000000      2.000000
 -0.026932  0.000000  0.000000      2.000000
  0.020199  0.034986  0.000000      2.000000
 -0.020199  0.034986  0.000000      2.000000
 -0.040399  0.000000  0.000000      2.000000
  0.026932  0.046648  0.000000      2.000000
 -0.026932  0.046648  0.000000      2.000000
 -0.053865  0.000000  0.000000      2.000000
[...]
 apply_gfac_exchange                 39016.886501    ********
 rpromu_hf                           23799.921875     5699080
 racc0mu_hf_                         23022.275328     5573365
 fock_set_gfac_vkpt                  12242.176261     5573365
 depsum_two_bands_rholm_trace_        3986.049420    ********
 calc_dllmm_trans                     3429.143817    ********
 m_ibcast_z_from                      2640.041036     1860640
 fock_fwd                             2436.528354       19140
 phaser_hf                            2064.043744     5573365
 lapack                               1885.836018       31605
 m_sumb_d                             1099.545480      171814
 m_alltoall_d                          908.975520      383965
 fftwav                                555.761683     2845765
 overl_fock                            530.076633    ********
 fock_all_dblbuf                       413.118575          66
 fft3d_mpi                             333.573395    ********
 w1_copy                               261.360379     2912795
 fock_set_fsg                          146.025036          23
 m_bcast_z                             138.473080      101206
 apply_gfac_weight                     106.218494     1340960
 depsum_two_bands_rholm_trace_m        102.419333     5573365
 gemm                                   91.488253      700560
 depsum_two_bands_rholm_trace           90.801090    ********
 waitgth                                82.414548       19140
 vhamil                                 78.307566       34360
 total_time                             78.069517           1
 pdssyex_zheevx                         75.330072        2755
 waitred                                67.844962       19140
 phase                                  61.306968       20357
 orth1                                  47.168219       91140
 eddav                                  34.119350          47
 bg_ppotrf_trtri                        33.522424       10730
 proj1                                  32.172411       29090
 work_mul_crexp                         26.226423      700560
 fock_charge_mu                         24.440665     5573365
 crexp_mul_wave                         21.636419      465440
 eccp_nl_fock                           20.109822    64366080
 ggemm                                  20.027438       31605
 dllmm_trans_eccp_nl_fock               19.955570      125715
 fock_ace_acc_apply                     17.436845       31605
 wfinit                                 16.342597           5
 edwav                                  16.064908          18
 eccp                                   14.026716       14260
 racc0mu_hf                             13.971623     5573365
 pw_charge_trace_mu                     13.172976     5573365
 fock_force                              8.641027           1
 orth1_nosubindex                        5.082003       10730
 fock_bck                                5.038066       19140
 depsum_two_bands_rholm_trace_m          4.567852     5573365
 sphpro_fast                             3.983678           6
 redis_pw                                3.882498      206215
 spher                                   3.868681          11
 elmin_all                               3.334542           1
 fftwav_mpi                              3.207484     2845765
 apply_precond                           3.022280       25175
 m_bcast_d                               2.728596       63232
 hamiltmu                                2.510694       31605
 lincom_slice                            2.249813       10730
 fft_and_gather                          1.866943       19285
 w1_daxpy                                1.538756       31605
 pw_charge                               1.522015        5491
 w1_dot                                  1.464312        6430
 fftext_mpi                              1.456405       43930
 lincom                                  1.370096        5365
 redis_proj                              1.121712      177750
 reduce                                  1.105546       19140
 kinhamil                                1.089321       34360
 vnlac0                                  1.032890       43785
 w1_dscal                                1.023423        2610
 m_alltoallv_z                           0.990944         337
 wrk_allocate                            0.923029           1
 dfftw_execute                           0.837061         897
 fornl                                   0.804274           1
 distri_slice                            0.765252       10730
 fftbas_plan_mpi                         0.739465         299
 soft_charge_sym                         0.657262          19
 projxyz                                 0.648339         145
 densta                                  0.456012          21
 overl1                                  0.444769       41175
 ggaall_grid                             0.321118          20
 orthch                                  0.235723          23
 potlok                                  0.217254          19
 orth1_distri                            0.199466       10730
 force_and_stress                        0.198121           1
 overl                                   0.186248       68670
 recon_slice                             0.152866       10730
 lincom_distri                           0.112958       10730
 setup_precond                           0.112036        6430
 contraction                             0.101064      125715
 newband                                 0.099460       38035
 inisym                                  0.082003           1
 fock_ace_construct                      0.068197          47
 w1_projall                              0.059921       25175
 augmentation_charge                     0.049540          19
 eddiag                                  0.037024           1
 setdij_                                 0.032425          27
 depsum_sym                              0.021318          19
 choleski                                0.020043       10730
 proj                                    0.017442        1305
 m_sum_g                                 0.017288       21460
 hamilt_local                            0.015493        2755
 crpa_reader                             0.015294           1
 brgrid                                  0.012844           1
 set_dd_paw                              0.011791          20
 map_gather                              0.011289         337
 truncate_high_frequency_w1              0.010728       38035
 map_scatter                             0.009509         337
 rspher_all                              0.007776           4
 set_charge                              0.005919          19
 proall                                  0.004648           5
 forhar                                  0.002462           1
 redis_pw_all                            0.002110          18
 fft_gq                                  0.001994          19
 pothar                                  0.001867          19
 posmap                                  0.001577           2
 FERMAT_RAZOR                            0.001138           1
 fewald                                  0.001018           1
 forloc                                  0.000947           1
 set_dd_magatom                          0.000750           2
 rsp                                     0.000668           1
 map_backward                            0.000475         316
 stufak                                  0.000409           1
 map_forward                             0.000390         282
 vectorpot                               0.000344           1
 fftbrc_mpi                              0.000197         299
 wrk_deallocate                          0.000040           1
 rcp                                     0.000034           1
 shift_bands_between_low_high            0.000030         145
 fordep                                  0.000020           1
 redis_pw_over_bands                     0.000018          19
 potlok_metagga                          0.000005          19
 rotate_active_occupied_orbital          0.000001           1
  summed up times    631119.559603930

 Accumulative profile

 total_time                         631119.559604           1
 fock_all_dblbuf                    623092.613542          66
 fock_fwd                           570095.147108       19140
 fft3d                              310774.723371    ********
 fft3d_mpi                          309013.739252    ********
 elmin_all                          177378.118756           1
 edwav                              168052.393217          18
 fock_charge_mu                     106961.364082     5573365
 pw_charge_trace_mu                  79716.838770     5573365
 pw_charge_trace_mu_                 79703.665793     5573365
 vhamil_trace                        70709.576235    ********
 reduce                              49741.854066       19140
 m_ireduce_z_to                      49740.748520     1837440
 apply_gfac_exchange                 39016.886501    ********
 rpromu_hf                           23799.921875     5699080
 racc0mu_hf                          23036.246952     5573365
 racc0mu_hf_                         23022.275328     5573365
 fock_set_gfac_vkpt                  14306.220005     5573365
 eddiag                               9306.385861           1
 eddav                                4226.557362          47
 depsum_two_bands_rholm_trace_m       4183.837694     5573365
 depsum_two_bands_rholm_trace_m       4179.269843     5573365
 depsum_two_bands_rholm_trace         4076.850510    ********
 depsum_two_bands_rholm_trace_        3986.049420    ********
 calc_dllmm_trans                     3429.143817    ********
 force_and_stress                     3048.601885           1
 fock_force                           3046.727118           1
 fft_and_gather                       2726.692342       19285
 fftwav_mpi                           2656.116011     2845765
 fftwav                               2652.908527     2845765
 m_ibcast_z_from                      2640.041036     1860640
 phaser_hf                            2064.043744     5573365
 lapack                               1885.836018       31605
 m_sumb_d                             1099.545480      171814
 m_alltoall_d                          908.975520      383965
 redis_pw                              703.010588      206215
 overl_fock                            530.076633    ********
 fock_ace_acc_apply                    369.509903       31605
 w1_copy                               261.360379     2912795
 redis_proj                            210.969142      177750
 fftext_mpi                            198.217363       43930
 fock_bck                              193.710594       19140
 hamiltmu                              192.684627       31605
 fock_set_fsg                          146.025036          23
 dllmm_trans_eccp_nl_fock              142.339405      125715
 m_bcast_z                             138.473080      101206
 fock_ace_construct                    131.819322          47
 vnlac0                                118.747565       43785
 apply_gfac_weight                     106.218494     1340960
 gemm                                   91.488253      700560
 waitgth                                82.414548       19140
 vhamil                                 78.307566       34360
 pdssyex_zheevx                         75.330072        2755
 waitred                                67.844962       19140
 kinhamil                               67.750230       34360
 phase                                  61.306968       20357
 m_sum_g                                57.496224       21460
 proj1                                  53.808830       29090
 newband                                50.765552       38035
 w1_projall                             48.487333       25175
 orth1                                  47.168219       91140
 orthch                                 41.831623          23
 orth1_distri                           36.009764       10730
 choleski                               33.542467       10730
 bg_ppotrf_trtri                        33.522424       10730
 wfinit                                 32.112309           5
 lincom_distri                          30.048817       10730
 work_mul_crexp                         26.226423      700560
 crexp_mul_wave                         21.636419      465440
 eccp_nl_fock                           20.109822    64366080
 ggemm                                  20.027438       31605
 set_charge                             14.530608          19
 soft_charge_sym                        14.118644          19
 eccp                                   14.026716       14260
 hamilt_local                           13.007125        2755
 redis_pw_over_bands                     8.168137          19
 redis_pw_all                            8.168119          18
 wrk_allocate                            7.720332           1
 proall                                  5.578953           5
 orth1_nosubindex                        5.082003       10730
 sphpro_fast                             4.539787           6
 spher                                   3.868681          11
 apply_precond                           3.022280       25175
 m_bcast_d                               2.728596       63232
 fftbrc_mpi                              2.589331         299
 fftbas_plan_mpi                         2.589134         299
 lincom_slice                            2.249813       10730
 potlok                                  1.561098          19
 w1_daxpy                                1.538756       31605
 pw_charge                               1.522015        5491
 w1_dot                                  1.464312        6430
 fornl                                   1.454384           1
 proj                                    1.402598        1305
 lincom                                  1.370096        5365
 fft_gq                                  1.196187          19
 w1_dscal                                1.023423        2610
 m_alltoallv_z                           0.990944         337
 set_dd_paw                              0.853468          20
 dfftw_execute                           0.837061         897
 distri_slice                            0.765252       10730
 densta                                  0.699060          21
 map_backward                            0.652693         316
 projxyz                                 0.648370         145
 overl1                                  0.444769       41175
 map_forward                             0.359914         282
 ggaall_grid                             0.321118          20
 depsum_sym                              0.215809          19
 augmentation_charge                     0.190236          19
 overl                                   0.186248       68670
 recon_slice                             0.152866       10730
 setup_precond                           0.112036        6430
 contraction                             0.101064      125715
 inisym                                  0.083580           1
 setdij_                                 0.048970          27
 crpa_reader                             0.015294           1
 brgrid                                  0.012844           1
 forloc                                  0.011658           1
 map_gather                              0.011289         337
 truncate_high_frequency_w1              0.010728       38035
 pothar                                  0.010015          19
 map_scatter                             0.009509         337
 rspher_all                              0.007776           4
 fordep                                  0.004668           1
 forhar                                  0.003656           1
 fewald                                  0.002305           1
 posmap                                  0.001577           2
 FERMAT_RAZOR                            0.001138           1
 set_dd_magatom                          0.000750           2
 rsp                                     0.000668           1
 stufak                                  0.000409           1
 vectorpot                               0.000344           1
 wrk_deallocate                          0.000040           1
 rcp                                     0.000034           1
 shift_bands_between_low_high            0.000030         145
 potlok_metagga                          0.000005          19
 rotate_active_occupied_orbital          0.000001           1

Profiling took 461.183008268.877399  0.023619  0.023551 seconds
Profiling took 468.839588 seconds