 vasp.6.4.2 20Jul23 (build Aug 23 2023 19:13:21) complex

 executed on             LinuxIFC date 2024.05.02  18:11:34

 INCAR:
   SYSTEM = SC
   ISTART = 0
   ICHARG = 2
   PREC = Accurate
   ENCUT = 450
   LCHARG = .TRUE.
   LWAVE = .TRUE.
   ALGO = Normal
   NELM = 64
   EDIFF = 1E-6
   EDIFFG = -1E-3
   SIGMA = 0.1
   ISMEAR = 0
   IBRION = -1
   GGA = PE
   IVDW = 12

 POTCAR:    PAW_PBE B 06Sep2000
 POTCAR:    PAW_PBE C 08Apr2002
 POTCAR:    PAW_PBE B 06Sep2000
   VRHFIN =B: s2p1

   TITEL  = PAW_PBE B 06Sep2000
   POMASS =   10.811; ZVAL   =    3.000    mass and valenz
   ENMAX  =  318.614; ENMIN  =  238.960 eV

   TITEL  = PAW_PBE C 08Apr2002
   POMASS =   12.011; ZVAL   =    4.000    mass and valenz
   ENMAX  =  400.000; ENMIN  =  300.000 eV

  PAW_PBE B 06Sep2000                   :
  PAW_PBE C 08Apr2002                   :

 POSCAR: Graphene-B4C3 Top with lattice parameter
  positions in direct lattice
 exchange correlation table for  LEXCH =        8
   RHO(1)=    0.500       N(1)  =     2000
   RHO(2)=  100.500       N(2)  =     4000

 VTST: version 4.1, (05/19/21)

 CHAIN: initializing optimizer

 OPT: Using VASP Dynamics algorithm
 CHAIN: Read ICHAIN            0

 POSCAR: Graphene-B4C3 Top with lattice parameter
  positions in direct lattice

 ion  position               nearest neighbor table
   1  0.004  0.003  0.102-   5 1.57   6 1.57   7 1.57   3 1.72   2 1.72   4 1.72
   2  0.359  0.003  0.101-   6 1.56   5 1.65   7 1.65   1 1.72
   3  0.004  0.358  0.101-   7 1.56   6 1.65   5 1.65   1 1.72
   4  0.649  0.648  0.101-   5 1.56   7 1.65   6 1.65   1 1.72
   5  0.328  0.326  0.101-   4 1.56   1 1.57   2 1.65   3 1.65
   6  0.681  0.003  0.101-   2 1.56   1 1.57   3 1.65   4 1.65
   7  0.004  0.679  0.101-   3 1.56   1 1.57   4 1.65   2 1.65

  LATTYP: Found a hexagonal cell.
 ALAT       =     4.8460000000
 C/A-ratio  =     3.0953363599

  Lattice vectors:

 A1 = (   4.1967591067,   2.4230000000,   0.0000000000)
 A2 = (  -4.1967591067,   2.4230000000,   0.0000000000)
 A3 = (   0.0000000000,   0.0000000000,  15.0000000000)

Analysis of symmetry for initial positions (statically):
 Subroutine PRICEL returns:
 Original cell was already a primitive cell.

 Routine SETGRP: Setting up the symmetry group for a
 hexagonal supercell.

 Subroutine GETGRP returns: Found  3 space group operations
 (whereof  1 operations were pure point group operations)
 out of a pool of 24 trial point group operations.

The static configuration has the point symmetry C_1 .
 The point group associated with its full space group is C_3 .

Analysis of symmetry for dynamics (positions and initial velocities):
 Subroutine PRICEL returns:
 Original cell was already a primitive cell.

 Routine SETGRP: Setting up the symmetry group for a
 hexagonal supercell.

 Subroutine GETGRP returns: Found  3 space group operations
 (whereof  1 operations were pure point group operations)
 out of a pool of 24 trial point group operations.

The dynamic configuration has the point symmetry C_1 .
 The point group associated with its full space group is C_3 .

 Subroutine INISYM returns: Found  3 space group operations
 (whereof  1 operations are pure point group operations),
 and found     1 'primitive' translations

                                     Primitive cell

  volume of cell :     305.0624

  direct lattice vectors                    reciprocal lattice vectors
     4.196759107  2.423000000  0.000000000     0.119139552  0.206355757  0.000000000
    -4.196759107  2.423000000  0.000000000    -0.119139552  0.206355757  0.000000000
     0.000000000  0.000000000 15.000000000     0.000000000  0.000000000  0.066666667

  length of vectors
     4.846000000  4.846000000 15.000000000     0.238279104  0.238279104  0.066666667

  position of ions in fractional coordinates (direct lattice)
     0.004056526  0.002697343  0.101501060
     0.359245494  0.002978704  0.100711409
     0.003767832  0.357599513  0.100712169
     0.649148177  0.647506274  0.100708602
     0.327784757  0.326144145  0.100730862
     0.680601878  0.002974890  0.100730542
     0.003770558  0.678959212  0.100727858

  ion indices of the primitive-cell ions
   primitive index   ion index
                 1           1
                 2           2
                 3           3
                 4           4
                 5           5
                 6           6
                 7           7

 KPOINTS: k-points

Automatic generation of k-mesh.
 Grid dimensions read from file:
 generate k-points for:   17   17    1

 Generating k-lattice:

  Cartesian coordinates                     Fractional coordinates (reciprocal lattice)
     0.007008209  0.012138574  0.000000000     0.058823529  0.000000000  0.000000000
    -0.007008209  0.012138574  0.000000000     0.000000000  0.058823529  0.000000000
     0.000000000  0.000000000  0.066666667     0.000000000  0.000000000  1.000000000

  Length of vectors
     0.014016418  0.014016418  0.066666667

  Shift w.r.t. Gamma in fractional coordinates (k-lattice)
     0.000000000  0.000000000  0.000000000

 Subroutine IBZKPT returns following result:

 Found     49 irreducible k-points:

 Following reciprocal coordinates:
            Coordinates               Weight
  0.000000  0.000000  0.000000      1.000000
  0.058824  0.000000  0.000000      6.000000
  0.117647 -0.000000  0.000000      6.000000
  0.176471 -0.000000  0.000000      6.000000
  0.235294 -0.000000  0.000000      6.000000
  0.294118  0.000000  0.000000      6.000000
  0.352941  0.000000  0.000000      6.000000
  0.411765  0.000000  0.000000      6.000000
  0.470588 -0.000000  0.000000      6.000000
  0.058824  0.058824  0.000000      6.000000
  0.117647  0.058824  0.000000      6.000000
 -0.117647  0.176471  0.000000      6.000000
  0.176471  0.058824  0.000000      6.000000
 -0.176471  0.235294  0.000000      6.000000
  0.235294  0.058824  0.000000      6.000000
 -0.235294  0.294118  0.000000      6.000000
  0.294118  0.058824  0.000000      6.000000
 -0.294118  0.352941  0.000000      6.000000
  0.352941  0.058824  0.000000      6.000000
 -0.352941  0.411765  0.000000      6.000000
  0.411765  0.058824  0.000000      6.000000
 -0.411765  0.470588  0.000000      6.000000
  0.470588  0.058824  0.000000      6.000000
  0.117647  0.117647  0.000000      6.000000
  0.176471  0.117647  0.000000      6.000000
 -0.176471  0.294118  0.000000      6.000000
  0.235294  0.117647  0.000000      6.000000
 -0.235294  0.352941  0.000000      6.000000
  0.294118  0.117647  0.000000      6.000000
 -0.294118  0.411765  0.000000      6.000000
  0.352941  0.117647  0.000000      6.000000
 -0.352941  0.470588  0.000000      6.000000
  0.411765  0.117647  0.000000      6.000000
 -0.411765 -0.470588  0.000000      6.000000
  0.176471  0.176471  0.000000      6.000000
  0.235294  0.176471  0.000000      6.000000
 -0.235294  0.411765  0.000000      6.000000
  0.294118  0.176471  0.000000      6.000000
 -0.294118  0.470588  0.000000      6.000000
  0.352941  0.176471  0.000000      6.000000
 -0.352941 -0.470588  0.000000      6.000000
  0.411765  0.176471  0.000000      6.000000
  0.235294  0.235294  0.000000      6.000000
  0.294118  0.235294  0.000000      6.000000
 -0.294118 -0.470588  0.000000      6.000000
  0.352941  0.235294  0.000000      6.000000
 -0.352941 -0.411765  0.000000      6.000000
  0.294118  0.294118  0.000000      6.000000
  0.352941  0.294118  0.000000      6.000000

 Following cartesian coordinates:
            Coordinates               Weight
  0.000000  0.000000  0.000000      1.000000
  0.007008  0.012139  0.000000      6.000000
  0.014016  0.024277  0.000000      6.000000
  0.021025  0.036416  0.000000      6.000000
  0.028033  0.048554  0.000000      6.000000
  0.035041  0.060693  0.000000      6.000000
  0.042049  0.072831  0.000000      6.000000
  0.049057  0.084970  0.000000      6.000000
  0.056066  0.097109  0.000000      6.000000
 -0.000000  0.024277  0.000000      6.000000
  0.007008  0.036416  0.000000      6.000000
 -0.035041  0.012139  0.000000      6.000000
  0.014016  0.048554  0.000000      6.000000
 -0.049057  0.012139  0.000000      6.000000
  0.021025  0.060693  0.000000      6.000000
 -0.063074  0.012139  0.000000      6.000000
  0.028033  0.072831  0.000000      6.000000
 -0.077090  0.012139  0.000000      6.000000
  0.035041  0.084970  0.000000      6.000000
 -0.091107  0.012139  0.000000      6.000000
  0.042049  0.097109  0.000000      6.000000
 -0.105123  0.012139  0.000000      6.000000
  0.049057  0.109247  0.000000      6.000000
 -0.000000  0.048554  0.000000      6.000000
  0.007008  0.060693  0.000000      6.000000
 -0.056066  0.024277  0.000000      6.000000
  0.014016  0.072831  0.000000      6.000000
 -0.070082  0.024277  0.000000      6.000000
  0.021025  0.084970  0.000000      6.000000
 -0.084099  0.024277  0.000000      6.000000
  0.028033  0.097109  0.000000      6.000000
 -0.098115  0.024277  0.000000      6.000000
  0.035041  0.109247  0.000000      6.000000
  0.007008 -0.182079  0.000000      6.000000
 -0.000000  0.072831  0.000000      6.000000
  0.007008  0.084970  0.000000      6.000000
 -0.077090  0.036416  0.000000      6.000000
  0.014016  0.097109  0.000000      6.000000
 -0.091107  0.036416  0.000000      6.000000
  0.021025  0.109247  0.000000      6.000000
  0.014016 -0.169940  0.000000      6.000000
  0.028033  0.121386  0.000000      6.000000
 -0.000000  0.097109  0.000000      6.000000
  0.007008  0.109247  0.000000      6.000000
  0.021025 -0.157801  0.000000      6.000000
  0.014016  0.121386  0.000000      6.000000
  0.007008 -0.157801  0.000000      6.000000
  0.000000  0.121386  0.000000      6.000000
  0.007008  0.133524  0.000000      6.000000

 SYSTEM =  SC
 POSCAR =  Graphene-B4C3 Top with lattice parameter

 Startparameter for this run:
   NWRITE =      2    write-flag & timer
   PREC   = accura    normal or accurate (medium, high low for compatibility)
   ISTART =      0    job   : 0-new  1-cont  2-samecut
   ICHARG =      2    charge: 1-file 2-atom 10-const
   ISPIN  =      1    spin polarized calculation?
   LNONCOLLINEAR =      F non collinear calculations
   LSORBIT =      F    spin-orbit coupling
   INIWAV =      1    electr: 0-lowe 1-rand  2-diag
   LASPH  =      F    aspherical Exc in radial PAW
 Electronic Relaxation 1
   ENCUT  =  450.0 eV  33.07 Ry    5.75 a.u.   8.38  8.38 25.95*2*pi/ulx,y,z
   ENINI  =  450.0     initial cutoff
   ENAUG  =  644.9 eV  augmentation charge cutoff
   NELM   =     64;   NELMIN=  2; NELMDL= -5     # of ELM steps
   EDIFF  = 0.1E-05   stopping-criterion for ELM
   LREAL  =      F    real-space projection
   NLSPLINE    = F    spline interpolate recip. space projectors
   LCOMPAT=      F    compatible to vasp.4.4
   GGA_COMPAT  = T    GGA compatible to vasp.4.4-vasp.4.6
   LMAXPAW     = -100 max onsite density
   LMAXMIX     =    2 max onsite mixed and CHGCAR
   VOSKOWN=      0    Vosko Wilk Nusair interpolation
   ROPT   =    0.00000   0.00000
 Ionic relaxation
   EDIFFG = -.1E-02   stopping-criterion for IOM
   NSW    =      0    number of steps for IOM
   NBLOCK =      1;   KBLOCK =      1    inner block; outer block
[...]
 k-point  13 :   0.1765 0.0588 0.0000  plane waves:    6646
 k-point  14 :  -0.1765 0.2353 0.0000  plane waves:    6646
 k-point  15 :   0.2353 0.0588 0.0000  plane waves:    6604
 k-point  16 :  -0.2353 0.2941 0.0000  plane waves:    6604
 k-point  17 :   0.2941 0.0588 0.0000  plane waves:    6601
 k-point  18 :  -0.2941 0.3529 0.0000  plane waves:    6601
 k-point  19 :   0.3529 0.0588 0.0000  plane waves:    6589
 k-point  20 :  -0.3529 0.4118 0.0000  plane waves:    6589
 k-point  21 :   0.4118 0.0588 0.0000  plane waves:    6604
 k-point  22 :  -0.4118 0.4706 0.0000  plane waves:    6604
 k-point  23 :   0.4706 0.0588 0.0000  plane waves:    6594
 k-point  24 :   0.1176 0.1176 0.0000  plane waves:    6613
 k-point  25 :   0.1765 0.1176 0.0000  plane waves:    6620
 k-point  26 :  -0.1765 0.2941 0.0000  plane waves:    6620
 k-point  27 :   0.2353 0.1176 0.0000  plane waves:    6600
 k-point  28 :  -0.2353 0.3529 0.0000  plane waves:    6600
 k-point  29 :   0.2941 0.1176 0.0000  plane waves:    6606
 k-point  30 :  -0.2941 0.4118 0.0000  plane waves:    6606
 k-point  31 :   0.3529 0.1176 0.0000  plane waves:    6606
 k-point  32 :  -0.3529 0.4706 0.0000  plane waves:    6606
 k-point  33 :   0.4118 0.1176 0.0000  plane waves:    6598
 k-point  34 :  -0.4118-0.4706 0.0000  plane waves:    6598
 k-point  35 :   0.1765 0.1765 0.0000  plane waves:    6593
 k-point  36 :   0.2353 0.1765 0.0000  plane waves:    6611
 k-point  37 :  -0.2353 0.4118 0.0000  plane waves:    6611
 k-point  38 :   0.2941 0.1765 0.0000  plane waves:    6606
 k-point  39 :  -0.2941 0.4706 0.0000  plane waves:    6606
 k-point  40 :   0.3529 0.1765 0.0000  plane waves:    6609
 k-point  41 :  -0.3529-0.4706 0.0000  plane waves:    6609
 k-point  42 :   0.4118 0.1765 0.0000  plane waves:    6596
 k-point  43 :   0.2353 0.2353 0.0000  plane waves:    6598
 k-point  44 :   0.2941 0.2353 0.0000  plane waves:    6606
 k-point  45 :  -0.2941-0.4706 0.0000  plane waves:    6606
 k-point  46 :   0.3529 0.2353 0.0000  plane waves:    6600
 k-point  47 :  -0.3529-0.4118 0.0000  plane waves:    6600
 k-point  48 :   0.2941 0.2941 0.0000  plane waves:    6612
 k-point  49 :   0.3529 0.2941 0.0000  plane waves:    6618

 maximum and minimum number of plane-waves per node :      6648     6589

 maximum number of plane-waves:      6648
 maximum index in each direction:
   IXMAX=    8   IYMAX=    8   IZMAX=   25
   IXMIN=   -8   IYMIN=   -8   IZMIN=  -25

 serial   3D FFT for wavefunctions
 parallel 3D FFT for charge:
    minimum data exchange during FFTs selected (reduces bandwidth)

 Broyden mixing: mesh for mixing (old mesh)
   NGX = 17   NGY = 17   NGZ = 51
  (NGX  = 72   NGY  = 72   NGZ  =216)
  gives a total of  14739 points

 initial charge density was supplied:
 charge density of overlapping atoms calculated
 number of electron      24.0000000 magnetization
 keeping initial charge density in first step

 Maximum index for augmentation-charges          392 (set IRDMAX)

 First call to EWALD:  gamma=   0.263
 Maximum number of real-space cells 4x 4x 2
 Maximum number of reciprocal cells 2x 2x 6

--------------------------------------- Ionic step        1  -------------------------------------------

--------------------------------------- Iteration      1(   1)  ---------------------------------------

 eigenvalue-minimisations  : 65280
 total energy-change (2. order) :-0.5173173E+02  (-0.1071028E+04)
 number of electron      24.0000000 magnetization
 augmentation part       24.0000000 magnetization

 Free energy of the ion-electron system (eV)
  alpha Z        PSCENC =        12.06338034
  Ewald energy   TEWEN  =      1877.62238997
  -Hartree energ DENC   =     -2394.86732271
  -exchange      EXHF   =         0.00000000
  -V(xc)+E(xc)   XCENC  =        65.90966535
  PAW double counting   =       499.56560116     -497.85253880
  entropy T*S    EENTRO =        -0.00000000
  eigenvalues    EBANDS =      -340.28129379
  atomic energy  EATOM  =       726.10839270
  Solvation  Ediel_sol  =         0.00000000
  free energy    TOTEN  =       -51.73172578 eV

  energy without entropy =      -51.73172578  energy(sigma->0) =      -51.73172578

[...]

 eigenvalue-minimisations  : 47040
 total energy-change (2. order) : 0.4547474E-12  ( 0.4089800E-12)
 number of electron      24.0000000 magnetization
 augmentation part        0.3221841 magnetization

 Broyden mixing:
  rms(total) = 0.10801E+01    rms(broyden)= 0.10798E+01
  rms(prec ) = 0.12662E+01
  weight for this iteration     100.00

[...]

 eigenvalue-minimisations  : 90240
 total energy-change (2. order) : 0.3566691E+01  (-0.1128209E+01)
 number of electron      24.0000000 magnetization
 augmentation part        0.2607147 magnetization

[...]

 eigenvalues of (default mixing * dielectric matrix)
  average eigenvalue GAMMA=   1.2347
  1.2347

[...]

 eigenvalue-minimisations  : 82080
 total energy-change (2. order) : 0.1719569E-03  (-0.7113955E-04)
 number of electron      24.0000000 magnetization
 augmentation part        0.2364885 magnetization

[...]

 Broyden mixing:
  rms(total) = 0.38585E-05    rms(broyden)= 0.38584E-05
  rms(prec ) = 0.49531E-05
  weight for this iteration     100.00

 eigenvalues of (default mixing * dielectric matrix)
  average eigenvalue GAMMA=   2.7467
  9.5300  5.8972  3.8930  3.0141  2.7471  2.4795  2.1125  1.9080  1.5860  1.1879
  1.0742  1.0128  1.0128  0.9982

[...]

--------------------------------------- Iteration      1(  20)  ---------------------------------------

 eigenvalue-minimisations  : 71040
 total energy-change (2. order) :-0.2493355E-06  (-0.7130330E-09)
 number of electron      24.0000000 magnetization
 augmentation part        0.2365095 magnetization

 Free energy of the ion-electron system (eV)
  alpha Z        PSCENC =        12.06338034
  Ewald energy   TEWEN  =      1877.62238997
  -Hartree energ DENC   =     -2488.94651161
  -exchange      EXHF   =         0.00000000
  -V(xc)+E(xc)   XCENC  =        69.05604672
  PAW double counting   =      2122.35151837    -2121.21077157
  entropy T*S    EENTRO =        -0.00000000
  eigenvalues    EBANDS =      -249.04177617
  atomic energy  EATOM  =       726.10839270
  Solvation  Ediel_sol  =         0.00000000
  free energy    TOTEN  =       -51.99733126 eV

  energy without entropy =      -51.99733126  energy(sigma->0) =      -51.99733126

 average (electrostatic) potential at core
  the test charge radii are     0.7672  0.6991
  (the norm of the test charge is              1.0000)
       1 -37.6908       2 -36.2270       3 -36.2273       4 -36.2268       5 -57.4520
       6 -57.4521       7 -57.4517

 E-fermi :  -2.5362     XC(G=0):  -2.8386     alpha+bet : -2.4409

 Fermi energy:        -2.5362268533

 k-point     1 :       0.0000    0.0000    0.0000
  band No.  band energies     occupation
      1     -19.5036      2.00000
      2     -15.6196      2.00000
      3     -15.6194      2.00000
      4     -12.5350      2.00000
      5     -11.5472      2.00000
      6     -11.5469      2.00000
      7      -9.7594      2.00000
      8      -8.9515      2.00000
      9      -5.0213      2.00000
     10      -5.0212      2.00000
     11      -2.9765      2.00000
     12      -2.9763      2.00000
     13      -0.9727      0.00000
     14      -0.9725      0.00000
     15      -0.1019      0.00000
     16       0.7301      0.00000
     17       1.3826      0.00000
     18       1.3827      0.00000
     19       1.7787      0.00000
     20       2.2816      0.00000
     21       4.1989      0.00000
     22       4.7166      0.00000
     23       5.7495      0.00000
     24       6.6798      0.00000
     25       6.7173      0.00000
     26       6.9317      0.00000
     27       7.2744      0.00000
     28       7.2744      0.00000
     29       8.3085      0.00000
     30       8.3087      0.00000
     31       8.4707      0.00000
     32       8.7410      0.00000
     33       9.3977      0.00000
     34       9.5743      0.00000
     35       9.5758      0.00000
     36       9.8239      0.00000
     37      10.0075      0.00000
     38      10.0086      0.00000
     39      10.1521      0.00000
     40      10.1868      0.00000
     41      10.1908      0.00000
     42      10.2381      0.00000
     43      10.2392      0.00000
     44      10.5333      0.00000
     45      10.8459      0.00000
     46      10.8508      0.00000
     47      10.9768      0.00000
     48      10.9993      0.00000
     49      11.2397      0.00000
     50      11.2428      0.00000
     51      11.8162      0.00000
     52      12.4615      0.00000
     53      12.4685      0.00000
     54      12.5096      0.00000
     55      12.7148      0.00000
     56      12.7185      0.00000
     57      13.3226      0.00000
     58      13.3866      0.00000
     59      13.3878      0.00000
     60      13.6030      0.00000
[...]
    466      73.1020      0.00000
    467      73.3622      0.00000
    468      73.4071      0.00000
    469      73.4423      0.00000
    470      73.4437      0.00000
    471      73.5563      0.00000
    472      73.5752      0.00000
    473      73.5803      0.00000
    474      73.7724      0.00000
    475      73.7775      0.00000
    476      73.7953      0.00000
    477      74.0812      0.00000
    478      74.2630      0.00000
    479      74.3205      0.00000
    480      74.3256      0.00000

[...]

 k-point    49 :       0.3529    0.2941    0.0000
  band No.  band energies     occupation
      1     -18.8190      2.00000
      2     -16.8067      2.00000
      3     -16.6411      2.00000
      4     -11.4736      2.00000
      5     -11.1325      2.00000
      6     -10.2708      2.00000
      7      -7.9571      2.00000
      8      -7.7536      2.00000
      9      -7.5845      2.00000
     10      -6.0288      2.00000
     11      -5.7317      2.00000
     12      -5.4730      2.00000
     13       0.4847      0.00000
     14       1.6230      0.00000
     15       1.8183      0.00000
     16       2.1324      0.00000
     17       2.4455      0.00000
     18       2.5973      0.00000
     19       3.2388      0.00000
     20       3.6088      0.00000
     21       3.9590      0.00000
     22       4.3351      0.00000
     23       4.4883      0.00000
     24       4.8619      0.00000
     25       4.9353      0.00000
     26       5.0061      0.00000
     27       5.0883      0.00000
     28       5.4622      0.00000
     29       6.8734      0.00000
     30       6.8922      0.00000
     31       7.0622      0.00000
     32       7.3505      0.00000
     33       7.3568      0.00000
     34       7.4641      0.00000
     35       7.9201      0.00000
     36       8.0397      0.00000
     37       8.8570      0.00000
     38      10.2492      0.00000
     39      10.3161      0.00000
     40      10.4371      0.00000
     41      10.5381      0.00000
     42      10.7574      0.00000
     43      11.0182      0.00000
     44      11.5424      0.00000
     45      11.9179      0.00000
     46      11.9377      0.00000
     47      12.0161      0.00000
     48      12.1626      0.00000
     49      12.5240      0.00000
     50      12.9576      0.00000
     51      12.9717      0.00000
     52      13.3085      0.00000
     53      13.5707      0.00000
     54      13.8489      0.00000
     55      13.9633      0.00000
     56      14.1663      0.00000
     57      14.2834      0.00000
     58      14.5777      0.00000
     59      14.6935      0.00000
     60      15.1854      0.00000
[...]
    466      74.2382      0.00000
    467      74.2650      0.00000
    468      74.4070      0.00000
    469      74.6878      0.00000
    470      74.6927      0.00000
    471      74.7074      0.00000
    472      74.8984      0.00000
    473      75.1466      0.00000
    474      75.2171      0.00000
    475      75.4666      0.00000
    476      75.4899      0.00000
    477      75.5050      0.00000
    478      75.5332      0.00000
    479      75.6601      0.00000
    480      75.9304      0.00000

 soft charge-density along one line, spin component           1
         0         1         2         3         4         5         6         7         8         9
 total charge-density along one line

------------------------ aborting loop because EDIFF is reached ----------------------------------------

         DFTD3 V3.0 Rev 1
 IVDW         = 12
 DF pbe
 parameters
 VDW_S6       =    1.0000
 VDW_S8       =    0.7875
 VDW_A1       =    0.4289
 VDW_A2       =    4.4407
 k1-k3        =   16.0000    1.3333   -4.0000
 VDW_RADIUS   =   50.2022 A
 VDW_CNRADIUS =   21.1671 A
 Edisp (eV)   -0.49424

 E6    (eV) :    -0.3260
 E8    (eV) :    -0.1683
 % E8        : 34.04

  FORCE on cell =-STRESS in cart. coord.  units (eV):
  Direction    XX          YY          ZZ          XY          YZ          ZX
  Alpha Z    12.06338    12.06338    12.06338
  Ewald    2540.34391  2540.34110 -3203.06366    -0.00063     0.00228    -0.00173
  Hartree  2449.95012  2449.95009 -2410.95382     0.00002     0.00002    -0.00003
  E(xc)     -81.48963   -81.48964   -84.36410     0.00001    -0.00000     0.00000
  Local   -5208.67139 -5208.67046  5349.29055     0.00063    -0.00116     0.00074
  n-local   -12.81877   -13.07074   -15.62376    -0.55823    -0.00029    -0.00004
  augment    -0.77996    -0.77994    -0.65511    -0.00003     0.00000     0.00002
  Kinetic   290.68116   292.02050   353.19080     1.41417     0.00081    -0.00473
  Fock        0.00000     0.00000     0.00000     0.00000     0.00000     0.00000
  vdW        -0.49230    -0.49230    -0.00462     0.00000     0.00000    -0.00000
  Total     -10.67075   -10.67075    -0.12035    -0.00000     0.00000    -0.00000
  in kB     -56.04241   -56.04241    -0.63209    -0.00000     0.00000    -0.00000

 VOLUME and BASIS-vectors are now :
  energy-cutoff  :      450.00
  volume of cell :      305.06
      direct lattice vectors                 reciprocal lattice vectors
     4.196759107  2.423000000  0.000000000     0.119139552  0.206355757  0.000000000
    -4.196759107  2.423000000  0.000000000    -0.119139552  0.206355757  0.000000000
     0.000000000  0.000000000 15.000000000     0.000000000  0.000000000  0.066666667

  length of vectors
     4.846000000  4.846000000 15.000000000     0.238279104  0.238279104  0.066666667

 FORCES acting on ions
    electron-ion (+dipol)            ewald-force                    non-local-force                 convergence-correction
   -.413E-03 -.761E-03 -.318E+01   0.147E-02 -.239E-02 0.325E+01   -.485E-18 0.225E-17 -.754E-01   0.592E-08 -.358E-08 -.207E-05
   -.199E+02 -.111E+02 0.445E+00   0.226E+02 0.127E+02 -.463E+00   -.274E+01 -.162E+01 0.866E-02   -.305E-05 -.263E-05 -.215E-05
   0.195E+02 -.117E+02 0.440E+00   -.223E+02 0.133E+02 -.460E+00   0.277E+01 -.156E+01 0.866E-02   0.379E-05 -.133E-05 -.215E-05
   0.353E+00 0.228E+02 0.459E+00   -.335E+00 -.259E+02 -.474E+00   -.361E-01 0.318E+01 0.866E-02   -.744E-06 0.395E-05 -.215E-05
   0.362E+00 -.368E+02 0.511E+00   -.362E+00 0.431E+02 -.612E+00   -.216E-01 -.629E+01 0.105E+00   -.126E-05 -.671E-05 -.237E-05
   0.317E+02 0.187E+02 0.517E+00   -.371E+02 -.219E+02 -.614E+00   0.546E+01 0.313E+01 0.105E+00   0.646E-05 0.226E-05 -.236E-05
   -.320E+02 0.181E+02 0.544E+00   0.375E+02 -.212E+02 -.627E+00   -.544E+01 0.317E+01 0.105E+00   -.519E-05 0.446E-05 -.235E-05
   0.604E-02 0.579E-02 -.266E+00   -.213E-13 -.142E-13 0.222E-15   0.000E+00 0.888E-15 0.266E+00   0.573E-08 -.378E-08 -.156E-04

 POSITION                                       TOTAL-FORCE (eV/Angst)
      0.00570      0.01636      1.52252        -0.000000      0.000000     -0.007641
      1.49517      0.87767      1.51067         0.015041     -0.014009     -0.009093
     -1.48495      0.87559      1.51068         0.004612      0.020031     -0.009093
      0.00689      3.14179      1.51063        -0.019653     -0.006021     -0.009093
      0.00689      1.58447      1.51096        -0.024961      0.006153      0.011640
      2.84384      1.65631      1.51096         0.007152     -0.024693      0.011640
     -2.83360      1.65425      1.51092         0.017809      0.018540      0.011640
    total drift:                                0.006039      0.005787      0.000033

  FREE ENERGIE OF THE ION-ELECTRON SYSTEM (eV)
  free  energy   TOTEN  =       -52.49157334 eV

  energy  without entropy=      -52.49157334  energy(sigma->0) =      -52.49157334

 stress matrix after NEB project (eV)
    -10.67075      0.00000     -0.00000
     -0.00000    -10.67075     -0.00000
     -0.00000      0.00000     -0.12035
  FORCES: max atom, RMS     0.028220    0.023794
  FORCE total and by dimension    0.062953    0.024961
  Stress total and by dimension   15.091199   10.670750
 writing wavefunctions