 vasp.6.4.2 20Jul23 (build Aug 23 2023 19:13:21) complex

 executed on             LinuxIFC date 2023.11.18  19:01:39

 INCAR:
   SYSTEM = BS_HSE06
   ISTART = 1
   ICHARG = 2
   PREC = Accurate
   LORBIT = 11
   ENCUT = 450
   ALGO = Damped
   TIME = 0.4
   NELM = 200
   EDIFF = 1E-6
   EDIFFG = -1E-3
   SIGMA = 0.1
   ISMEAR = 0
   IBRION = -1
   GGA = PE
   LHFCALC = .TRUE.
   AEXX = 0.25
   HFSCREEN = 0.2
   NKRED = 1

 POTCAR:    PAW_PBE B 06Sep2000
 POTCAR:    PAW_PBE C 08Apr2002
 POTCAR:    PAW_PBE B 06Sep2000
   VRHFIN =B: s2p1

   TITEL  = PAW_PBE B 06Sep2000
   POMASS =   10.811; ZVAL   =    3.000    mass and valenz
   ENMAX  =  318.614; ENMIN  =  238.960 eV

   TITEL  = PAW_PBE C 08Apr2002
   POMASS =   12.011; ZVAL   =    4.000    mass and valenz
   ENMAX  =  400.000; ENMIN  =  300.000 eV

  PAW_PBE B 06Sep2000                   :
  PAW_PBE C 08Apr2002                   :

 POSCAR: B4C3 with lattice parameter 4.690
  positions in direct lattice
  velocities in cartesian coordinates
 exchange correlation table for  LEXCH =        8
   RHO(1)=    0.500       N(1)  =     2000
   RHO(2)=  100.500       N(2)  =     4000

 VTST: version 4.1, (05/19/21)

 CHAIN: initializing optimizer

 OPT: Using VASP Dynamics algorithm
 CHAIN: Read ICHAIN            0

 POSCAR: B4C3 with lattice parameter 4.690
  positions in direct lattice
  velocities in cartesian coordinates

 ion  position               nearest neighbor table
   1  0.004  0.003  0.120-   7 1.55   6 1.55   5 1.55   4 1.69   2 1.69   3 1.69
   2  0.357  0.003  0.098-   6 1.52   5 1.59   7 1.59   1 1.69
   3  0.004  0.356  0.098-   7 1.52   5 1.59   6 1.59   1 1.69
   4  0.651  0.650  0.098-   5 1.52   6 1.59   7 1.59   1 1.69
   5  0.328  0.327  0.100-   4 1.52   1 1.55   3 1.59   2 1.59
   6  0.680  0.003  0.100-   2 1.52   1 1.55   3 1.59   4 1.59
   7  0.004  0.679  0.100-   3 1.52   1 1.55   2 1.59   4 1.59

  LATTYP: Found a hexagonal cell.
 ALAT       =     4.6899998755
 C/A-ratio  =     3.1982943280

  Lattice vectors:

 A1 = (   4.0616590000,   2.3450000000,   0.0000000000)
 A2 = (  -4.0616590000,   2.3450000000,   0.0000000000)
 A3 = (   0.0000000000,   0.0000000000,  15.0000000000)

Analysis of symmetry for initial positions (statically):
 Subroutine PRICEL returns:
 Original cell was already a primitive cell.

 Routine SETGRP: Setting up the symmetry group for a
 hexagonal supercell.

 Subroutine GETGRP returns: Found  3 space group operations
 (whereof  1 operations were pure point group operations)
 out of a pool of 24 trial point group operations.

The static configuration has the point symmetry C_1 .
 The point group associated with its full space group is C_3 .

Analysis of symmetry for dynamics (positions and initial velocities):
 Subroutine PRICEL returns:
 Original cell was already a primitive cell.

 Routine SETGRP: Setting up the symmetry group for a
 hexagonal supercell.

 Subroutine GETGRP returns: Found  3 space group operations
 (whereof  1 operations were pure point group operations)
 out of a pool of 24 trial point group operations.

The dynamic configuration has the point symmetry C_1 .
 The point group associated with its full space group is C_3 .

 Subroutine INISYM returns: Found  3 space group operations
 (whereof  1 operations are pure point group operations),
 and found     1 'primitive' translations

                                     Primitive cell

  volume of cell :     285.7377

  direct lattice vectors                    reciprocal lattice vectors
     4.061659000  2.345000000  0.000000000     0.123102407  0.213219616  0.000000000
    -4.061659000  2.345000000  0.000000000    -0.123102407  0.213219616  0.000000000
     0.000000000  0.000000000 15.000000000     0.000000000  0.000000000  0.066666667

  length of vectors
     4.689999876  4.689999876 15.000000000     0.246204808  0.246204808  0.066666667

  position of ions in fractional coordinates (direct lattice)
     0.004183931  0.002770402  0.120265168
     0.356955219  0.002781990  0.097503442
     0.004186971  0.355542049  0.097502993
     0.651416230  0.650011713  0.097505455
     0.328100716  0.326694043  0.100282726
     0.680268274  0.002781113  0.100292166
     0.004186659  0.678856689  0.100294050

  ion indices of the primitive-cell ions
   primitive index   ion index
                 1           1
                 2           2
                 3           3
                 4           4
                 5           5
                 6           6
                 7           7

 KPOINTS: k-points

Automatic generation of k-mesh.
 Grid dimensions read from file:
 generate k-points for:   17   17    1

 Generating k-lattice:

  Cartesian coordinates                     Fractional coordinates (reciprocal lattice)
     0.007241318  0.012542330  0.000000000     0.058823529 -0.000000000  0.000000000
    -0.007241318  0.012542330  0.000000000    -0.000000000  0.058823529  0.000000000
     0.000000000  0.000000000  0.066666667     0.000000000  0.000000000  1.000000000

  Length of vectors
     0.014482636  0.014482636  0.066666667

  Shift w.r.t. Gamma in fractional coordinates (k-lattice)
     0.000000000  0.000000000  0.000000000

 Subroutine IBZKPT returns following result:

 Found     81 irreducible k-points:

 Following reciprocal coordinates:
            Coordinates               Weight
  0.000000  0.000000  0.000000      1.000000
  0.058824  0.000000  0.000000      4.000000
 -0.058824  0.058824  0.000000      2.000000
  0.117647 -0.000000  0.000000      4.000000
 -0.117647  0.117647  0.000000      2.000000
  0.176471 -0.000000  0.000000      4.000000
 -0.176471  0.176471  0.000000      2.000000
  0.235294 -0.000000  0.000000      4.000000
 -0.235294  0.235294  0.000000      2.000000
  0.294118  0.000000  0.000000      4.000000
 -0.294118  0.294118  0.000000      2.000000
  0.352941  0.000000  0.000000      4.000000
 -0.352941  0.352941  0.000000      2.000000
  0.411765 -0.000000  0.000000      4.000000
 -0.411765  0.411765  0.000000      2.000000
  0.470588 -0.000000  0.000000      4.000000
 -0.470588  0.470588  0.000000      2.000000
  0.058824  0.058824  0.000000      3.000000
 -0.058824  0.117647  0.000000      3.000000
  0.117647  0.058824  0.000000      5.000000
 -0.058824  0.176471  0.000000      4.000000
 -0.176471  0.117647  0.000000      3.000000
  0.176471  0.058824  0.000000      5.000000
 -0.058824  0.235294  0.000000      4.000000
 -0.235294  0.176471  0.000000      3.000000
  0.235294  0.058824  0.000000      5.000000
 -0.058824  0.294118  0.000000      4.000000
 -0.294118  0.235294  0.000000      3.000000
  0.294118  0.058824  0.000000      5.000000
 -0.058824  0.352941  0.000000      4.000000
 -0.352941  0.294118  0.000000      3.000000
  0.352941  0.058824  0.000000      5.000000
 -0.058824  0.411765  0.000000      4.000000
 -0.411765  0.352941  0.000000      3.000000
  0.411765  0.058824  0.000000      5.000000
 -0.058824  0.470588  0.000000      4.000000
 -0.470588  0.411765  0.000000      3.000000
  0.470588  0.058824  0.000000      4.000000
  0.470588  0.470588  0.000000      2.000000
  0.117647  0.117647  0.000000      3.000000
 -0.117647  0.235294  0.000000      3.000000
  0.176471  0.117647  0.000000      5.000000
 -0.117647  0.294118  0.000000      4.000000
 -0.294118  0.176471  0.000000      3.000000
  0.235294  0.117647  0.000000      5.000000
 -0.117647  0.352941  0.000000      4.000000
 -0.352941  0.235294  0.000000      3.000000
  0.294118  0.117647  0.000000      5.000000
 -0.117647  0.411765  0.000000      4.000000
 -0.411765  0.294118  0.000000      3.000000
  0.352941  0.117647  0.000000      5.000000
 -0.117647  0.470588  0.000000      4.000000
 -0.470588  0.352941  0.000000      3.000000
  0.411765  0.117647  0.000000      5.000000
 -0.117647 -0.470588  0.000000      4.000000
  0.470588  0.411765  0.000000      3.000000
  0.176471  0.176471  0.000000      3.000000
 -0.176471  0.352941  0.000000      3.000000
  0.235294  0.176471  0.000000      5.000000
 -0.176471  0.411765  0.000000      4.000000
[...]
  0.470588  0.352941  0.000000      3.000000
  0.411765  0.176471  0.000000      4.000000
  0.411765  0.411765  0.000000      2.000000
  0.235294  0.235294  0.000000      3.000000
 -0.235294  0.470588  0.000000      3.000000
  0.294118  0.235294  0.000000      5.000000
 -0.235294 -0.470588  0.000000      4.000000
  0.470588  0.294118  0.000000      3.000000
  0.352941  0.235294  0.000000      5.000000
 -0.235294 -0.411765  0.000000      4.000000
  0.411765  0.352941  0.000000      3.000000
  0.294118  0.294118  0.000000      3.000000
 -0.294118 -0.411765  0.000000      3.000000
  0.352941  0.294118  0.000000      4.000000
  0.352941  0.352941  0.000000      2.000000

 Following cartesian coordinates:
            Coordinates               Weight
  0.000000  0.000000  0.000000      1.000000
  0.007241  0.012542  0.000000      4.000000
 -0.014483  0.000000  0.000000      2.000000
  0.014483  0.025085  0.000000      4.000000
 -0.028965 -0.000000  0.000000      2.000000
  0.021724  0.037627  0.000000      4.000000
 -0.043448  0.000000  0.000000      2.000000
  0.028965  0.050169  0.000000      4.000000
 -0.057931 -0.000000  0.000000      2.000000
  0.036207  0.062712  0.000000      4.000000
 -0.072413  0.000000  0.000000      2.000000
  0.043448  0.075254  0.000000      4.000000
 -0.086896  0.000000  0.000000      2.000000
  0.050689  0.087796  0.000000      4.000000
 -0.101378  0.000000  0.000000      2.000000
  0.057931  0.100339  0.000000      4.000000
 -0.115861 -0.000000  0.000000      2.000000
  0.000000  0.025085  0.000000      3.000000
 -0.021724  0.012542  0.000000      3.000000
  0.007241  0.037627  0.000000      5.000000
 -0.028965  0.025085  0.000000      4.000000
 -0.036207 -0.012542  0.000000      3.000000
  0.014483  0.050169  0.000000      5.000000
 -0.036207  0.037627  0.000000      4.000000
 -0.050689 -0.012542  0.000000      3.000000
  0.021724  0.062712  0.000000      5.000000
 -0.043448  0.050169  0.000000      4.000000
 -0.065172 -0.012542  0.000000      3.000000
  0.028965  0.075254  0.000000      5.000000
 -0.050689  0.062712  0.000000      4.000000
 -0.079654 -0.012542  0.000000      3.000000
  0.036207  0.087796  0.000000      5.000000
 -0.057931  0.075254  0.000000      4.000000
 -0.094137 -0.012542  0.000000      3.000000
  0.043448  0.100339  0.000000      5.000000
 -0.065172  0.087796  0.000000      4.000000
 -0.108620 -0.012542  0.000000      3.000000
  0.050689  0.112881  0.000000      4.000000
  0.000000  0.200677  0.000000      2.000000
  0.000000  0.050169  0.000000      3.000000
 -0.043448  0.025085  0.000000      3.000000
  0.007241  0.062712  0.000000      5.000000
 -0.050689  0.037627  0.000000      4.000000
 -0.057931 -0.025085  0.000000      3.000000
  0.014483  0.075254  0.000000      5.000000
 -0.057931  0.050169  0.000000      4.000000
 -0.072413 -0.025085  0.000000      3.000000
  0.021724  0.087796  0.000000      5.000000
 -0.065172  0.062712  0.000000      4.000000
 -0.086896 -0.025085  0.000000      3.000000
  0.028965  0.100339  0.000000      5.000000
 -0.072413  0.075254  0.000000      4.000000
 -0.101378 -0.025085  0.000000      3.000000
[...]
   0.35294118  0.35294118  0.00000000       0.007

 position of ions in fractional coordinates (direct lattice)
   0.00418393  0.00277040  0.12026517
   0.35695522  0.00278199  0.09750344
   0.00418697  0.35554205  0.09750299
   0.65141623  0.65001171  0.09750545
   0.32810072  0.32669404  0.10028273
   0.68026827  0.00278111  0.10029217
   0.00418666  0.67885669  0.10029405

 position of ions in cartesian coordinates  (Angst):
   0.00574127  0.01630791  1.80397753
   1.43853088  0.84358376  1.46255163
  -1.42708452  0.84356455  1.46254490
   0.00570467  3.05184853  1.46258182
   0.00571343  1.53549371  1.50424089
   2.75172183  1.60175081  1.50438248
  -2.74027960  1.60173665  1.50441075

 k-point   1 :   0.0000 0.0000 0.0000  plane waves:    6189
 k-point   2 :   0.0588 0.0000 0.0000  plane waves:    6162
 k-point   3 :  -0.0588 0.0588 0.0000  plane waves:    6162
 k-point   4 :   0.1176-0.0000 0.0000  plane waves:    6172
 k-point   5 :  -0.1176 0.1176 0.0000  plane waves:    6172
 k-point   6 :   0.1765-0.0000 0.0000  plane waves:    6152
 k-point   7 :  -0.1765 0.1765 0.0000  plane waves:    6152
 k-point   8 :   0.2353-0.0000 0.0000  plane waves:    6184
 k-point   9 :  -0.2353 0.2353 0.0000  plane waves:    6184
 k-point  10 :   0.2941 0.0000 0.0000  plane waves:    6208
 k-point  11 :  -0.2941 0.2941 0.0000  plane waves:    6208
 k-point  12 :   0.3529 0.0000 0.0000  plane waves:    6214
 k-point  13 :  -0.3529 0.3529 0.0000  plane waves:    6214
 k-point  14 :   0.4118-0.0000 0.0000  plane waves:    6226
 k-point  15 :  -0.4118 0.4118 0.0000  plane waves:    6226
 k-point  16 :   0.4706-0.0000 0.0000  plane waves:    6200
 k-point  17 :  -0.4706 0.4706 0.0000  plane waves:    6200
 k-point  18 :   0.0588 0.0588 0.0000  plane waves:    6172
 k-point  19 :  -0.0588 0.1176 0.0000  plane waves:    6172
 k-point  20 :   0.1176 0.0588 0.0000  plane waves:    6154
 k-point  21 :  -0.0588 0.1765 0.0000  plane waves:    6154
 k-point  22 :  -0.1765 0.1176 0.0000  plane waves:    6154
 k-point  23 :   0.1765 0.0588 0.0000  plane waves:    6169
 k-point  24 :  -0.0588 0.2353 0.0000  plane waves:    6169
 k-point  25 :  -0.2353 0.1765 0.0000  plane waves:    6169
 k-point  26 :   0.2353 0.0588 0.0000  plane waves:    6194
 k-point  27 :  -0.0588 0.2941 0.0000  plane waves:    6194
 k-point  28 :  -0.2941 0.2353 0.0000  plane waves:    6194
 k-point  29 :   0.2941 0.0588 0.0000  plane waves:    6198
 k-point  30 :  -0.0588 0.3529 0.0000  plane waves:    6198
 k-point  31 :  -0.3529 0.2941 0.0000  plane waves:    6198
 k-point  32 :   0.3529 0.0588 0.0000  plane waves:    6209
 k-point  33 :  -0.0588 0.4118 0.0000  plane waves:    6209
 k-point  34 :  -0.4118 0.3529 0.0000  plane waves:    6209
 k-point  35 :   0.4118 0.0588 0.0000  plane waves:    6204
 k-point  36 :  -0.0588 0.4706 0.0000  plane waves:    6204
 k-point  37 :  -0.4706 0.4118 0.0000  plane waves:    6204
 k-point  38 :   0.4706 0.0588 0.0000  plane waves:    6196
 k-point  39 :   0.4706 0.4706 0.0000  plane waves:    6196
 k-point  40 :   0.1176 0.1176 0.0000  plane waves:    6172
 k-point  41 :  -0.1176 0.2353 0.0000  plane waves:    6172
 k-point  42 :   0.1765 0.1176 0.0000  plane waves:    6178
 k-point  43 :  -0.1176 0.2941 0.0000  plane waves:    6178
 k-point  44 :  -0.2941 0.1765 0.0000  plane waves:    6178
 k-point  45 :   0.2353 0.1176 0.0000  plane waves:    6182
 k-point  46 :  -0.1176 0.3529 0.0000  plane waves:    6182
 k-point  47 :  -0.3529 0.2353 0.0000  plane waves:    6182
 k-point  48 :   0.2941 0.1176 0.0000  plane waves:    6193
 k-point  49 :  -0.1176 0.4118 0.0000  plane waves:    6193
 k-point  50 :  -0.4118 0.2941 0.0000  plane waves:    6193
 k-point  51 :   0.3529 0.1176 0.0000  plane waves:    6198
 k-point  52 :  -0.1176 0.4706 0.0000  plane waves:    6198
 k-point  53 :  -0.4706 0.3529 0.0000  plane waves:    6198
 k-point  54 :   0.4118 0.1176 0.0000  plane waves:    6197
 k-point  55 :  -0.1176-0.4706 0.0000  plane waves:    6197
 k-point  56 :   0.4706 0.4118 0.0000  plane waves:    6197
 k-point  57 :   0.1765 0.1765 0.0000  plane waves:    6184
 k-point  58 :  -0.1765 0.3529 0.0000  plane waves:    6184
 k-point  59 :   0.2353 0.1765 0.0000  plane waves:    6205
 k-point  60 :  -0.1765 0.4118 0.0000  plane waves:    6205
[...]
 k-point  67 :   0.4706 0.3529 0.0000  plane waves:    6207
 k-point  68 :   0.4118 0.1765 0.0000  plane waves:    6190
 k-point  69 :   0.4118 0.4118 0.0000  plane waves:    6190
 k-point  70 :   0.2353 0.2353 0.0000  plane waves:    6208
 k-point  71 :  -0.2353 0.4706 0.0000  plane waves:    6208
 k-point  72 :   0.2941 0.2353 0.0000  plane waves:    6199
 k-point  73 :  -0.2353-0.4706 0.0000  plane waves:    6199
 k-point  74 :   0.4706 0.2941 0.0000  plane waves:    6199
 k-point  75 :   0.3529 0.2353 0.0000  plane waves:    6198
 k-point  76 :  -0.2353-0.4118 0.0000  plane waves:    6198
 k-point  77 :   0.4118 0.3529 0.0000  plane waves:    6198
 k-point  78 :   0.2941 0.2941 0.0000  plane waves:    6190
 k-point  79 :  -0.2941-0.4118 0.0000  plane waves:    6190
 k-point  80 :   0.3529 0.2941 0.0000  plane waves:    6188
 k-point  81 :   0.3529 0.3529 0.0000  plane waves:    6188

 maximum and minimum number of plane-waves per node :      6226     6152

 maximum number of plane-waves:      6226
 maximum index in each direction:
   IXMAX=    8   IYMAX=    8   IZMAX=   25
   IXMIN=   -8   IYMIN=   -8   IZMIN=  -25

 serial   3D FFT for wavefunctions
 parallel 3D FFT for charge:
    minimum data exchange during FFTs selected (reduces bandwidth)

 FFT grid for exact exchange (Hartree Fock)
  NGX = 28; NGY = 28; NGZ = 80

 Radii for the augmentation spheres in the non-local exchange
 for species   1 augmentation radius   0.959 (default was   0.767)
       energy cutoff for augmentation   1800.0
 for species   2 augmentation radius   0.874 (default was   0.699)
       energy cutoff for augmentation   1800.0
 Maximum index for augmentation-charges in exchange          823
  SETUP_FOCK is finished

 Broyden mixing: mesh for mixing (old mesh)
   NGX = 17   NGY = 17   NGZ = 51
  (NGX  = 64   NGY  = 64   NGZ  =216)
  gives a total of  14739 points

 initial charge density was supplied:
 charge density of overlapping atoms calculated
 number of electron      24.0000000 magnetization
 charge density for first step will be calculated from the start-wavefunctions

 Maximum index for augmentation-charges          368 (set IRDMAX)

 First call to EWALD:  gamma=   0.269
 Maximum number of real-space cells 4x 4x 1
 Maximum number of reciprocal cells 2x 2x 6

--------------------------------------- Ionic step        1  -------------------------------------------

--------------------------------------- Iteration      1(   1)  ---------------------------------------

 eigenvalue-minimisations  : 11616
 total energy-change (2. order) : 0.3788308E+02  (-0.9580828E+03)
 number of electron      24.0000000 magnetization
 augmentation part       24.0000000 magnetization

 Free energy of the ion-electron system (eV)
  alpha Z        PSCENC =        12.87923804
  Ewald energy   TEWEN  =      2035.29425873
  -Hartree energ DENC   =     -2541.03626715
  -exchange      EXHF   =         0.00000000
  -V(xc)+E(xc)   XCENC  =        66.94270959
  PAW double counting   =       499.56560116     -639.19153068
  entropy T*S    EENTRO =        -0.01869892
  eigenvalues    EBANDS =      -113.80925192
  atomic energy  EATOM  =       717.25701665
  free energy    TOTEN  =        37.88307550 eV

  energy without entropy =       37.90177442  energy(sigma->0) =       37.89242496
  exchange ACFDT corr.  =         0.00000000  see jH, gK, PRB 81, 115126

[...]

 eigenvalue-minimisations  : 15552
 total energy-change (2. order) :-0.2343899E+03  (-0.2320326E+03)
 number of electron      24.0000000 magnetization
 augmentation part       24.0000000 magnetization

[...]

 eigenvalue-minimisations  :     0
 total energy-change (2. order) : 0.1290585E+02  (-0.7235856E+01)
 number of electron      23.9999999 magnetization
 augmentation part        0.2891424 magnetization

[...]

--------------------------------------- Iteration      1(  25)  ---------------------------------------

 eigenvalue-minimisations  :     0
 total energy-change (2. order) :-0.6565338E-06  (-0.4300423E-06)
 number of electron      24.0000000 magnetization
 augmentation part        0.2419650 magnetization

 Free energy of the ion-electron system (eV)
  alpha Z        PSCENC =        12.87923804
  Ewald energy   TEWEN  =      2035.29425873
  -Hartree energ DENC   =     -2650.03011339
  -exchange      EXHF   =        48.40286708
  -V(xc)+E(xc)   XCENC  =        54.08652049
  PAW double counting   =      2654.42833953    -2653.06016739
  entropy T*S    EENTRO =        -0.00000000
  eigenvalues    EBANDS =      -278.43004927
  atomic energy  EATOM  =       717.25701665
  free energy    TOTEN  =       -59.17212633 eV

  energy without entropy =      -59.17212633  energy(sigma->0) =      -59.17212633
  exchange ACFDT corr.  =        -0.00000000  see jH, gK, PRB 81, 115126

  average scaling for gradient   1.0983

 average (electrostatic) potential at core
  the test charge radii are     0.7672  0.6991
  (the norm of the test charge is              1.0000)
       1 -34.5536       2 -32.6380       3 -32.6380       4 -32.6381       5 -53.0936
       6 -53.0938       7 -53.0936

 E-fermi :  -2.7983     XC(G=0):  -2.4389     alpha+bet : -2.6060

 Fermi energy:        -2.7983431909

 k-point     1 :       0.0000    0.0000    0.0000
  band No.  band energies     occupation
      1     -22.0742      2.00000
      2     -17.3956      2.00000
      3     -17.3955      2.00000
      4     -14.1912      2.00000
      5     -12.8640      2.00000
      6     -12.8640      2.00000
      7     -11.1484      2.00000
      8     -10.2505      2.00000
      9      -5.3362      2.00000
     10      -5.3358      2.00000
     11      -3.2671      2.00000
     12      -3.2669      2.00000
     13      -0.3505      0.00000
     14      -0.3504      0.00000
     15      -0.2109      0.00000
     16       1.4364      0.00000
     17       1.9556      0.00000
     18       2.5378      0.00000
     19       3.2882      0.00000
     20       3.2883      0.00000
     21       4.3641      0.00000
     22       5.1228      0.00000
     23       7.5358      0.00000
     24       7.8949      0.00000
     25       8.3322      0.00000
     26       8.8457      0.00000
     27       8.9438      0.00000
     28       8.9439      0.00000
     29       9.6978      0.00000
     30       9.6979      0.00000
     31       9.8348      0.00000
     32       9.8451      0.00000
     33      10.1736      0.00000
     34      10.7634      0.00000
     35      10.8196      0.00000
     36      10.8197      0.00000
     37      10.9805      0.00000
     38      10.9806      0.00000
     39      11.0695      0.00000
     40      11.1368      0.00000
     41      11.1372      0.00000
     42      11.3167      0.00000
     43      11.3209      0.00000
     44      11.3388      0.00000
     45      11.7171      0.00000
     46      11.8385      0.00000
     47      12.1652      0.00000
     48      12.6630      0.00000

[...]

 k-point    81 :       0.3529    0.3529    0.0000
  band No.  band energies     occupation
      1     -21.2345      2.00000
      2     -18.9160      2.00000
      3     -18.7102      2.00000
      4     -12.8126      2.00000
      5     -12.4016      2.00000
      6     -11.3841      2.00000
      7      -8.7776      2.00000
      8      -8.5711      2.00000
      9      -8.5178      2.00000
     10      -6.6973      2.00000
     11      -6.4267      2.00000
     12      -6.1186      2.00000
     13       1.0683      0.00000
     14       2.7579      0.00000
     15       3.2206      0.00000
     16       3.2905      0.00000
     17       3.7922      0.00000
     18       3.7927      0.00000
     19       4.0544      0.00000
     20       4.5699      0.00000
     21       4.5838      0.00000
     22       4.7905      0.00000
     23       4.9353      0.00000
     24       5.1536      0.00000
     25       5.3352      0.00000
     26       5.3629      0.00000
     27       5.7572      0.00000
     28       6.6411      0.00000
     29       7.2832      0.00000
     30       7.2889      0.00000
     31       7.7659      0.00000
     32       7.9641      0.00000
     33       8.2319      0.00000
     34       8.7089      0.00000
     35       9.5851      0.00000
     36      10.1318      0.00000
     37      11.1248      0.00000
     38      11.1718      0.00000
     39      11.3285      0.00000
     40      11.6236      0.00000
     41      11.7953      0.00000
     42      11.8736      0.00000
     43      12.3628      0.00000
     44      12.6670      0.00000
     45      12.7462      0.00000
     46      13.0345      0.00000
     47      13.3011      0.00000
     48      13.7708      0.00000

 soft charge-density along one line, spin component           1
         0         1         2         3         4         5         6         7         8         9
 total charge-density along one line

------------------------ aborting loop because EDIFF is reached ----------------------------------------

 total charge

# of ion       s       p       d       tot
    1        0.694   1.408   0.000   2.102
    2        0.714   1.338   0.000   2.051
    3        0.712   1.335   0.000   2.047
    4        0.716   1.340   0.000   2.056
    5        0.852   1.780   0.000   2.632
    6        0.850   1.781   0.000   2.632
    7        0.848   1.783   0.000   2.631
tot          5.386  10.765   0.000  16.150

 VOLUME and BASIS-vectors are now :
  energy-cutoff  :      450.00
  volume of cell :      285.74
      direct lattice vectors                 reciprocal lattice vectors
     4.061659000  2.345000000  0.000000000     0.123102407  0.213219616  0.000000000
    -4.061659000  2.345000000  0.000000000    -0.123102407  0.213219616  0.000000000
     0.000000000  0.000000000 15.000000000     0.000000000  0.000000000  0.066666667

  length of vectors
     4.689999876  4.689999876 15.000000000     0.246204808  0.246204808  0.066666667

 FORCES acting on ions:
    Electron-Ion                     Ewald-Force                    Non-Local-Force
   0.707E-03 -.315E-02 -.915E+02   -.146E-02 0.384E-02 0.932E+02   0.198E-02 -.343E-02 -.172E+01
   -.207E+02 -.120E+02 0.200E+02   0.236E+02 0.136E+02 -.204E+02   -.270E+01 -.163E+01 0.394E+00
   0.207E+02 -.120E+02 0.200E+02   -.236E+02 0.136E+02 -.204E+02   0.275E+01 -.162E+01 0.400E+00
   0.215E-03 0.240E+02 0.199E+02   0.516E-03 -.272E+02 -.204E+02   0.303E-01 0.313E+01 0.388E+00
   0.887E-03 -.375E+02 0.865E+01   0.107E-03 0.439E+02 -.107E+02   -.151E-01 -.625E+01 0.196E+01
   0.325E+02 0.187E+02 0.859E+01   -.380E+02 -.220E+02 -.107E+02   0.545E+01 0.318E+01 0.202E+01
   -.325E+02 0.187E+02 0.858E+01   0.380E+02 -.220E+02 -.107E+02   -.551E+01 0.320E+01 0.208E+01
   0.332E-02 -.227E-02 -.582E+01   -.142E-13 0.249E-13 -.178E-14   -.238E-02 0.412E-02 0.554E+01

 POSITION                                       TOTAL-FORCE (eV/Angst)
      0.00574      0.01631      1.80398         0.001316     -0.002279     -0.037788
      1.43853      0.84358      1.46255        -0.013401     -0.056933     -0.031457
     -1.42708      0.84356      1.46254         0.042854     -0.049613     -0.026884
      0.00570      3.05185      1.46258         0.021539      0.018224     -0.036030
      0.00571      1.53549      1.50424        -0.009766     -0.201452      0.005503
      2.75172      1.60175      1.50438         0.201952      0.139617      0.044053
     -2.74028      1.60174      1.50441        -0.244494      0.152435      0.082604
    total drift:                               -0.000692      0.004670      0.015393

  FREE ENERGIE OF THE ION-ELECTRON SYSTEM (eV)
  free  energy   TOTEN  =       -59.17212633 eV

  energy  without entropy=      -59.17212633  energy(sigma->0) =      -59.17212633

 stress matrix after NEB project (eV)
      0.00000      0.00000      0.00000
      0.00000      0.00000      0.00000
      0.00000      0.00000      0.00000
  FORCES: max atom, RMS     0.299729    0.171433
  FORCE total and by dimension    0.453568    0.244494
  Stress total and by dimension    0.000000    0.000000

[...]

 writing wavefunctions

 total charge

# of ion       s       p       d       tot
    1        0.694   1.408   0.000   2.102
    2        0.714   1.338   0.000   2.051
    3        0.712   1.335   0.000   2.047
    4        0.716   1.340   0.000   2.056
    5        0.852   1.780   0.000   2.632
    6        0.850   1.781   0.000   2.632
    7        0.848   1.783   0.000   2.631
tot          5.386  10.765   0.000  16.150