 vasp.6.3.2 27Jun22 (build Dec 22 2022 13:13:19) complex

 executed on             LinuxIFC date 2023.11.03  19:35:10

 INCAR:
   SYSTEM = Lattice
   ISTART = 0
   ICHARG = 2
   PREC = Accurate
   ENCUT = 450
   LCHARG = .FALSE.
   LWAVE = .FALSE.
   ALGO = Normal
   NELM = 64
   EDIFF = 1E-6
   EDIFFG = -1E-3
   SIGMA = 0.1
   ISMEAR = 0
   ISPIN = 1
   NSW = 256
   IBRION = 2
   POTIM = .5
   ISIF = 2
   GGA = PE
   IVDW = 12

 POTCAR:    PAW_PBE C 08Apr2002
 POTCAR:    PAW_PBE C 08Apr2002
   VRHFIN =C: s2p2

   TITEL  = PAW_PBE C 08Apr2002
   POMASS =   12.011; ZVAL   =    4.000    mass and valenz
   ENMAX  =  400.000; ENMIN  =  300.000 eV

  PAW_PBE C 08Apr2002                   :

 POSCAR: Graphene with lattice parameter 2.467
  positions in direct lattice
 exchange correlation table for  LEXCH =        8
   RHO(1)=    0.500       N(1)  =     2000
   RHO(2)=  100.500       N(2)  =     4000

 VTST: version 4.2, (08/11/21)

 CHAIN: initializing optimizer

 OPT: Using VASP Conjugate-Gradient optimizer
 CHAIN: Read ICHAIN            0

 POSCAR: Graphene with lattice parameter 2.467
  positions in direct lattice

 ion  position               nearest neighbor table
   1  0.333  0.667  0.100-   2 1.42   2 1.42   2 1.42
   2  0.667  0.333  0.100-   1 1.42   1 1.42   1 1.42

  LATTYP: Found a hexagonal cell.
 ALAT       =     2.4670002848
 C/A-ratio  =     6.0802587225

  Lattice vectors:

 A1 = (   2.1364850000,   1.2335000000,   0.0000000000)
 A2 = (  -2.1364850000,   1.2335000000,   0.0000000000)
 A3 = (   0.0000000000,   0.0000000000,  15.0000000000)

Analysis of symmetry for initial positions (statically):
 Subroutine PRICEL returns:
 Original cell was already a primitive cell.

 Routine SETGRP: Setting up the symmetry group for a
 hexagonal supercell.

 Subroutine GETGRP returns: Found 24 space group operations
 (whereof 12 operations were pure point group operations)
 out of a pool of 24 trial point group operations.

The static configuration has the point symmetry C_6v.
 The point group associated with its full space group is D_6h.

Analysis of symmetry for dynamics (positions and initial velocities):
 Subroutine PRICEL returns:
 Original cell was already a primitive cell.

 Routine SETGRP: Setting up the symmetry group for a
 hexagonal supercell.

 Subroutine GETGRP returns: Found 24 space group operations
 (whereof 12 operations were pure point group operations)
 out of a pool of 24 trial point group operations.

The dynamic configuration has the point symmetry C_6v.
 The point group associated with its full space group is D_6h.

 Subroutine INISYM returns: Found 24 space group operations
 (whereof 12 operations are pure point group operations),
 and found     1 'primitive' translations

                                     Primitive cell

  volume of cell :      79.0606

  direct lattice vectors                    reciprocal lattice vectors
     2.136485000  1.233500000  0.000000000     0.234029258  0.405350628  0.000000000
    -2.136485000  1.233500000  0.000000000    -0.234029258  0.405350628  0.000000000
     0.000000000  0.000000000 15.000000000     0.000000000  0.000000000  0.066666667

  length of vectors
     2.467000285  2.467000285 15.000000000     0.468058571  0.468058571  0.066666667

  position of ions in fractional coordinates (direct lattice)
     0.333333000  0.666666000  0.100000000
     0.666666000  0.333333000  0.100000000

  ion indices of the primitive-cell ions
   primitive index   ion index
                 1           1
                 2           2

 KPOINTS: k-points

Automatic generation of k-mesh.
 Grid dimensions read from file:
 generate k-points for:   33   33    1

 Generating k-lattice:

  Cartesian coordinates                     Fractional coordinates (reciprocal lattice)
     0.007091796  0.012283352  0.000000000     0.030303030 -0.000000000  0.000000000
    -0.007091796  0.012283352  0.000000000    -0.000000000  0.030303030  0.000000000
     0.000000000  0.000000000  0.066666667     0.000000000  0.000000000  1.000000000

  Length of vectors
     0.014183593  0.014183593  0.066666667

  Shift w.r.t. Gamma in fractional coordinates (k-lattice)
     0.000000000  0.000000000  0.000000000

 Subroutine IBZKPT returns following result:

 Found    108 irreducible k-points:

 Following reciprocal coordinates:
            Coordinates               Weight
  0.000000  0.000000  0.000000      1.000000
  0.030303  0.000000  0.000000      6.000000
  0.060606  0.000000  0.000000      6.000000
  0.090909  0.000000  0.000000      6.000000
  0.121212  0.000000  0.000000      6.000000
  0.151515  0.000000  0.000000      6.000000
  0.181818  0.000000  0.000000      6.000000
  0.212121  0.000000  0.000000      6.000000
  0.242424  0.000000  0.000000      6.000000
  0.272727  0.000000  0.000000      6.000000
  0.303030  0.000000  0.000000      6.000000
  0.333333  0.000000  0.000000      6.000000
  0.363636  0.000000  0.000000      6.000000
  0.393939  0.000000  0.000000      6.000000
  0.424242  0.000000  0.000000      6.000000
  0.454545  0.000000  0.000000      6.000000
  0.484848  0.000000  0.000000      6.000000
  0.030303  0.030303  0.000000      6.000000
  0.060606  0.030303  0.000000     12.000000
  0.090909  0.030303  0.000000     12.000000
  0.121212  0.030303  0.000000     12.000000
  0.151515  0.030303  0.000000     12.000000
  0.181818  0.030303  0.000000     12.000000
  0.212121  0.030303  0.000000     12.000000
  0.242424  0.030303  0.000000     12.000000
  0.272727  0.030303  0.000000     12.000000
  0.303030  0.030303  0.000000     12.000000
  0.333333  0.030303  0.000000     12.000000
  0.363636  0.030303  0.000000     12.000000
  0.393939  0.030303  0.000000     12.000000
  0.424242  0.030303  0.000000     12.000000
  0.454545  0.030303  0.000000     12.000000
  0.484848  0.030303  0.000000      6.000000
  0.060606  0.060606  0.000000      6.000000
  0.090909  0.060606  0.000000     12.000000
  0.121212  0.060606  0.000000     12.000000
  0.151515  0.060606  0.000000     12.000000
  0.181818  0.060606  0.000000     12.000000
  0.212121  0.060606  0.000000     12.000000
  0.242424  0.060606  0.000000     12.000000
  0.272727  0.060606  0.000000     12.000000
  0.303030  0.060606  0.000000     12.000000
  0.333333  0.060606  0.000000     12.000000
  0.363636  0.060606  0.000000     12.000000
  0.393939  0.060606  0.000000     12.000000
  0.424242  0.060606  0.000000     12.000000
  0.454545  0.060606  0.000000     12.000000
  0.090909  0.090909  0.000000      6.000000
  0.121212  0.090909  0.000000     12.000000
  0.151515  0.090909  0.000000     12.000000
  0.181818  0.090909  0.000000     12.000000
  0.212121  0.090909  0.000000     12.000000
  0.242424  0.090909  0.000000     12.000000
  0.272727  0.090909  0.000000     12.000000
  0.303030  0.090909  0.000000     12.000000
  0.333333  0.090909  0.000000     12.000000
  0.363636  0.090909  0.000000     12.000000
  0.393939  0.090909  0.000000     12.000000
  0.424242  0.090909  0.000000     12.000000
  0.454545  0.090909  0.000000      6.000000
[...]
  0.333333  0.212121  0.000000     12.000000
  0.363636  0.212121  0.000000     12.000000
  0.393939  0.212121  0.000000      6.000000
  0.242424  0.242424  0.000000      6.000000
  0.272727  0.242424  0.000000     12.000000
  0.303030  0.242424  0.000000     12.000000
  0.333333  0.242424  0.000000     12.000000
  0.363636  0.242424  0.000000     12.000000
  0.272727  0.272727  0.000000      6.000000
  0.303030  0.272727  0.000000     12.000000
  0.333333  0.272727  0.000000     12.000000
  0.363636  0.272727  0.000000      6.000000
  0.303030  0.303030  0.000000      6.000000
  0.333333  0.303030  0.000000     12.000000
  0.333333  0.333333  0.000000      2.000000

 Following cartesian coordinates:
            Coordinates               Weight
  0.000000  0.000000  0.000000      1.000000
  0.007092  0.012283  0.000000      6.000000
  0.014184  0.024567  0.000000      6.000000
  0.021275  0.036850  0.000000      6.000000
  0.028367  0.049133  0.000000      6.000000
  0.035459  0.061417  0.000000      6.000000
  0.042551  0.073700  0.000000      6.000000
  0.049643  0.085983  0.000000      6.000000
  0.056734  0.098267  0.000000      6.000000
  0.063826  0.110550  0.000000      6.000000
  0.070918  0.122834  0.000000      6.000000
  0.078010  0.135117  0.000000      6.000000
  0.085102  0.147400  0.000000      6.000000
  0.092193  0.159684  0.000000      6.000000
  0.099285  0.171967  0.000000      6.000000
  0.106377  0.184250  0.000000      6.000000
  0.113469  0.196534  0.000000      6.000000
 -0.000000  0.024567  0.000000      6.000000
  0.007092  0.036850  0.000000     12.000000
  0.014184  0.049133  0.000000     12.000000
  0.021275  0.061417  0.000000     12.000000
  0.028367  0.073700  0.000000     12.000000
  0.035459  0.085983  0.000000     12.000000
  0.042551  0.098267  0.000000     12.000000
  0.049643  0.110550  0.000000     12.000000
  0.056734  0.122834  0.000000     12.000000
  0.063826  0.135117  0.000000     12.000000
  0.070918  0.147400  0.000000     12.000000
  0.078010  0.159684  0.000000     12.000000
  0.085102  0.171967  0.000000     12.000000
  0.092193  0.184250  0.000000     12.000000
  0.099285  0.196534  0.000000     12.000000
  0.106377  0.208817  0.000000      6.000000
 -0.000000  0.049133  0.000000      6.000000
  0.007092  0.061417  0.000000     12.000000
  0.014184  0.073700  0.000000     12.000000
  0.021275  0.085983  0.000000     12.000000
  0.028367  0.098267  0.000000     12.000000
  0.035459  0.110550  0.000000     12.000000
  0.042551  0.122834  0.000000     12.000000
  0.049643  0.135117  0.000000     12.000000
  0.056734  0.147400  0.000000     12.000000
  0.063826  0.159684  0.000000     12.000000
  0.070918  0.171967  0.000000     12.000000
  0.078010  0.184250  0.000000     12.000000
  0.085102  0.196534  0.000000     12.000000
  0.092193  0.208817  0.000000     12.000000
 -0.000000  0.073700  0.000000      6.000000
  0.007092  0.085983  0.000000     12.000000
  0.014184  0.098267  0.000000     12.000000
  0.021275  0.110550  0.000000     12.000000
  0.028367  0.122834  0.000000     12.000000
  0.035459  0.135117  0.000000     12.000000
  0.042551  0.147400  0.000000     12.000000
  0.049643  0.159684  0.000000     12.000000
  0.056734  0.171967  0.000000     12.000000
  0.063826  0.184250  0.000000     12.000000
  0.070918  0.196534  0.000000     12.000000
  0.078010  0.208817  0.000000     12.000000
  0.085102  0.221100  0.000000      6.000000
[...]
  0.028367  0.221100  0.000000     12.000000
  0.035459  0.233384  0.000000     12.000000
  0.042551  0.245667  0.000000      6.000000
  0.000000  0.196534  0.000000      6.000000
  0.007092  0.208817  0.000000     12.000000
  0.014184  0.221100  0.000000     12.000000
  0.021275  0.233384  0.000000     12.000000
  0.028367  0.245667  0.000000     12.000000
  0.000000  0.221100  0.000000      6.000000
  0.007092  0.233384  0.000000     12.000000
  0.014184  0.245667  0.000000     12.000000
  0.021275  0.257950  0.000000      6.000000
  0.000000  0.245667  0.000000      6.000000
  0.007092  0.257950  0.000000     12.000000
[...]
[...]
   0.33333333  0.21212121  0.00000000       0.011
   0.36363636  0.21212121  0.00000000       0.011
   0.39393939  0.21212121  0.00000000       0.006
   0.24242424  0.24242424  0.00000000       0.006
   0.27272727  0.24242424  0.00000000       0.011
   0.30303030  0.24242424  0.00000000       0.011
   0.33333333  0.24242424  0.00000000       0.011
   0.36363636  0.24242424  0.00000000       0.011
   0.27272727  0.27272727  0.00000000       0.006
   0.30303030  0.27272727  0.00000000       0.011
   0.33333333  0.27272727  0.00000000       0.011
   0.36363636  0.27272727  0.00000000       0.006
   0.30303030  0.30303030  0.00000000       0.006
   0.33333333  0.30303030  0.00000000       0.011
   0.33333333  0.33333333  0.00000000       0.002

 position of ions in fractional coordinates (direct lattice)
   0.33333300  0.66666600  0.10000000
   0.66666600  0.33333300  0.10000000

 position of ions in cartesian coordinates  (Angst):
  -0.71216095  1.23349877  1.50000000
   0.71216095  1.23349877  1.50000000

 k-point   1 :   0.0000 0.0000 0.0000  plane waves:    1749
 k-point   2 :   0.0303 0.0000 0.0000  plane waves:    1741
 k-point   3 :   0.0606 0.0000 0.0000  plane waves:    1743
 k-point   4 :   0.0909 0.0000 0.0000  plane waves:    1731
 k-point   5 :   0.1212 0.0000 0.0000  plane waves:    1717
 k-point   6 :   0.1515 0.0000 0.0000  plane waves:    1723
 k-point   7 :   0.1818 0.0000 0.0000  plane waves:    1717
 k-point   8 :   0.2121 0.0000 0.0000  plane waves:    1721
 k-point   9 :   0.2424 0.0000 0.0000  plane waves:    1713
 k-point  10 :   0.2727 0.0000 0.0000  plane waves:    1699
 k-point  11 :   0.3030 0.0000 0.0000  plane waves:    1693
 k-point  12 :   0.3333 0.0000 0.0000  plane waves:    1704
 k-point  13 :   0.3636 0.0000 0.0000  plane waves:    1704
 k-point  14 :   0.3939 0.0000 0.0000  plane waves:    1702
 k-point  15 :   0.4242 0.0000 0.0000  plane waves:    1720
 k-point  16 :   0.4545 0.0000 0.0000  plane waves:    1722
 k-point  17 :   0.4848 0.0000 0.0000  plane waves:    1724
 k-point  18 :   0.0303 0.0303 0.0000  plane waves:    1743
 k-point  19 :   0.0606 0.0303 0.0000  plane waves:    1731
 k-point  20 :   0.0909 0.0303 0.0000  plane waves:    1728
 k-point  21 :   0.1212 0.0303 0.0000  plane waves:    1720
 k-point  22 :   0.1515 0.0303 0.0000  plane waves:    1725
 k-point  23 :   0.1818 0.0303 0.0000  plane waves:    1717
 k-point  24 :   0.2121 0.0303 0.0000  plane waves:    1712
 k-point  25 :   0.2424 0.0303 0.0000  plane waves:    1703
 k-point  26 :   0.2727 0.0303 0.0000  plane waves:    1694
 k-point  27 :   0.3030 0.0303 0.0000  plane waves:    1705
 k-point  28 :   0.3333 0.0303 0.0000  plane waves:    1709
 k-point  29 :   0.3636 0.0303 0.0000  plane waves:    1714
 k-point  30 :   0.3939 0.0303 0.0000  plane waves:    1710
 k-point  31 :   0.4242 0.0303 0.0000  plane waves:    1720
 k-point  32 :   0.4545 0.0303 0.0000  plane waves:    1712
 k-point  33 :   0.4848 0.0303 0.0000  plane waves:    1712
 k-point  34 :   0.0606 0.0606 0.0000  plane waves:    1721
 k-point  35 :   0.0909 0.0606 0.0000  plane waves:    1720
 k-point  36 :   0.1212 0.0606 0.0000  plane waves:    1715
 k-point  37 :   0.1515 0.0606 0.0000  plane waves:    1710
 k-point  38 :   0.1818 0.0606 0.0000  plane waves:    1714
 k-point  39 :   0.2121 0.0606 0.0000  plane waves:    1703
 k-point  40 :   0.2424 0.0606 0.0000  plane waves:    1709
 k-point  41 :   0.2727 0.0606 0.0000  plane waves:    1698
 k-point  42 :   0.3030 0.0606 0.0000  plane waves:    1709
 k-point  43 :   0.3333 0.0606 0.0000  plane waves:    1719
 k-point  44 :   0.3636 0.0606 0.0000  plane waves:    1715
 k-point  45 :   0.3939 0.0606 0.0000  plane waves:    1710
 k-point  46 :   0.4242 0.0606 0.0000  plane waves:    1714
 k-point  47 :   0.4545 0.0606 0.0000  plane waves:    1716
 k-point  48 :   0.0909 0.0909 0.0000  plane waves:    1723
 k-point  49 :   0.1212 0.0909 0.0000  plane waves:    1719
 k-point  50 :   0.1515 0.0909 0.0000  plane waves:    1711
 k-point  51 :   0.1818 0.0909 0.0000  plane waves:    1709
 k-point  52 :   0.2121 0.0909 0.0000  plane waves:    1707
 k-point  53 :   0.2424 0.0909 0.0000  plane waves:    1707
 k-point  54 :   0.2727 0.0909 0.0000  plane waves:    1709
 k-point  55 :   0.3030 0.0909 0.0000  plane waves:    1715
 k-point  56 :   0.3333 0.0909 0.0000  plane waves:    1719
 k-point  57 :   0.3636 0.0909 0.0000  plane waves:    1717
 k-point  58 :   0.3939 0.0909 0.0000  plane waves:    1709
 k-point  59 :   0.4242 0.0909 0.0000  plane waves:    1707
 k-point  60 :   0.4545 0.0909 0.0000  plane waves:    1718
[...]
 k-point  94 :   0.3333 0.2121 0.0000  plane waves:    1714
 k-point  95 :   0.3636 0.2121 0.0000  plane waves:    1714
 k-point  96 :   0.3939 0.2121 0.0000  plane waves:    1720
 k-point  97 :   0.2424 0.2424 0.0000  plane waves:    1702
 k-point  98 :   0.2727 0.2424 0.0000  plane waves:    1699
 k-point  99 :   0.3030 0.2424 0.0000  plane waves:    1706
 k-point 100 :   0.3333 0.2424 0.0000  plane waves:    1704
 k-point 101 :   0.3636 0.2424 0.0000  plane waves:    1708
 k-point 102 :   0.2727 0.2727 0.0000  plane waves:    1696
 k-point 103 :   0.3030 0.2727 0.0000  plane waves:    1710
 k-point 104 :   0.3333 0.2727 0.0000  plane waves:    1710
 k-point 105 :   0.3636 0.2727 0.0000  plane waves:    1716
 k-point 106 :   0.3030 0.3030 0.0000  plane waves:    1712
 k-point 107 :   0.3333 0.3030 0.0000  plane waves:    1712
 k-point 108 :   0.3333 0.3333 0.0000  plane waves:    1710

 maximum and minimum number of plane-waves per node :      1749     1693

 maximum number of plane-waves:      1749
 maximum index in each direction:
   IXMAX=    4   IYMAX=    4   IZMAX=   25
   IXMIN=   -4   IYMIN=   -4   IZMIN=  -25

 serial   3D FFT for wavefunctions
 parallel 3D FFT for charge:
    minimum data exchange during FFTs selected (reduces bandwidth)

 Broyden mixing: mesh for mixing (old mesh)
   NGX =  9   NGY =  9   NGZ = 51
  (NGX  = 36   NGY  = 36   NGZ  =216)
  gives a total of   4131 points

 initial charge density was supplied:
 charge density of overlapping atoms calculated
 number of electron       8.0000000 magnetization
 keeping initial charge density in first step

 Maximum index for augmentation-charges            0 (set IRDMAX)

 First call to EWALD:  gamma=   0.413
 Maximum number of real-space cells 5x 5x 1
 Maximum number of reciprocal cells 2x 2x 8

--------------------------------------- Iteration      1(   1)  ---------------------------------------

 eigenvalue-minimisations  : 10368
 total energy-change (2. order) :-0.9934306E+01  (-0.3929287E+03)
 number of electron       8.0000000 magnetization
 augmentation part        8.0000000 magnetization

 Free energy of the ion-electron system (eV)
  alpha Z        PSCENC =         4.15613782
  Ewald energy   TEWEN  =       835.74566894
  -Hartree energ DENC   =     -1054.63199152
  -exchange      EXHF   =         0.00000000
  -V(xc)+E(xc)   XCENC  =        26.35432633
  PAW double counting   =       217.04409276     -218.18290438
  entropy T*S    EENTRO =        -0.00002551
  eigenvalues    EBANDS =      -114.70836702
  atomic energy  EATOM  =       294.28875697
  Solvation  Ediel_sol  =         0.00000000
  free energy    TOTEN  =        -9.93430561 eV

  energy without entropy =       -9.93428010  energy(sigma->0) =       -9.93429285

[...]

 Broyden mixing:
  rms(total) = 0.63325E+00    rms(broyden)= 0.63317E+00
  rms(prec ) = 0.70866E+00
  weight for this iteration     100.00

[...]

 eigenvalue-minimisations  : 15312
 total energy-change (2. order) : 0.9072360E+00  (-0.8848325E-01)
 number of electron       7.9999998 magnetization
 augmentation part        0.2029141 magnetization

[...]

 eigenvalues of (default mixing * dielectric matrix)
  average eigenvalue GAMMA=   2.2058
  2.2058

[...]

 eigenvalue-minimisations  : 16128
 total energy-change (2. order) : 0.1155228E-02  (-0.1509083E-03)
 number of electron       7.9999998 magnetization
 augmentation part        0.1916081 magnetization

[...]

 Broyden mixing:
  rms(total) = 0.76107E-05    rms(broyden)= 0.76094E-05
  rms(prec ) = 0.10419E-04
  weight for this iteration     100.00

 eigenvalues of (default mixing * dielectric matrix)
  average eigenvalue GAMMA=   3.1494
  9.6508  5.8111  4.0059  2.9737  2.7151  2.4412  1.9767  2.0646  0.9936  0.9936
  1.0176

[...]

--------------------------------------- Iteration      1(  17)  ---------------------------------------

 eigenvalue-minimisations  : 14832
 total energy-change (2. order) :-0.3288233E-06  (-0.9042345E-09)
 number of electron       7.9999998 magnetization
 augmentation part        0.1915429 magnetization

 Free energy of the ion-electron system (eV)
  alpha Z        PSCENC =         4.15613782
  Ewald energy   TEWEN  =       835.74566894
  -Hartree energ DENC   =     -1087.73726560
  -exchange      EXHF   =         0.00000000
  -V(xc)+E(xc)   XCENC  =        27.53615351
  PAW double counting   =       845.15723900     -846.52147535
  entropy T*S    EENTRO =        -0.00020723
  eigenvalues    EBANDS =       -91.07828731
  atomic energy  EATOM  =       294.28875697
  Solvation  Ediel_sol  =         0.00000000
  free energy    TOTEN  =       -18.45327926 eV

  energy without entropy =      -18.45307203  energy(sigma->0) =      -18.45317565

 average (electrostatic) potential at core
  the test charge radii are     0.6991
  (the norm of the test charge is              1.0000)
       1 -57.6941       2 -57.6941

 E-fermi :  -2.2530     XC(G=0):  -2.8674     alpha+bet : -2.5354

 Fermi energy:        -2.2530038104

 k-point     1 :       0.0000    0.0000    0.0000
  band No.  band energies     occupation
      1     -21.7571      2.00000
      2      -9.8606      2.00000
      3      -5.2826      2.00000
      4      -5.2826      2.00000
      5       1.0084      0.00000
      6       1.9135      0.00000
      7       2.4487      0.00000
      8       4.3406      0.00000
      9       5.0993      0.00000
     10       6.0630      0.00000
     11       6.0631      0.00000
     12       8.2381      0.00000
     13       9.1612      0.00000
     14       9.3517      0.00000
     15      10.2179      0.00000
     16      13.5628      0.00000
     17      15.0724      0.00000
     18      20.1265      0.00000
     19      20.2259      0.00000
     20      22.2220      0.00000
     21      25.9180      0.00000
     22      25.9180      0.00000
     23      27.1173      0.00000
     24      29.3325      0.00000
     25      29.3325      0.00000
     26      30.7216      0.00000
     27      31.4541      0.00000
     28      32.9459      0.00000
     29      32.9459      0.00000
     30      33.4523      0.00000
     31      33.4523      0.00000
     32      33.9408      0.00000
     33      34.1977      0.00000
     34      34.4800      0.00000
     35      35.1285      0.00000
     36      35.1285      0.00000
     37      35.2202      0.00000
     38      35.2202      0.00000
     39      35.2731      0.00000
     40      35.2731      0.00000
     41      35.3030      0.00000
     42      35.4029      0.00000
     43      35.4158      0.00000
     44      35.4158      0.00000
     45      35.6370      0.00000
     46      36.7427      0.00000
     47      37.3410      0.00000
     48      37.4552      0.00000

[...]

 k-point   108 :       0.3333    0.3333    0.0000
  band No.  band energies     occupation
      1     -14.8398      2.00000
      2     -14.8398      2.00000
      3     -12.7896      2.00000
      4      -2.2530      1.00013
      5      -2.2530      0.99987
      6       8.3638      0.00000
      7      10.6294      0.00000
      8      10.6294      0.00000
      9      11.2356      0.00000
     10      12.6777      0.00000
     11      12.6777      0.00000
     12      12.9632      0.00000
     13      12.9632      0.00000
     14      13.2035      0.00000
     15      13.5524      0.00000
     16      13.9173      0.00000
     17      13.9173      0.00000
     18      14.8828      0.00000
     19      15.1049      0.00000
     20      15.1049      0.00000
     21      16.2229      0.00000
     22      16.3832      0.00000
     23      16.3832      0.00000
     24      17.5090      0.00000
     25      18.8747      0.00000
     26      18.8747      0.00000
     27      20.4081      0.00000
     28      20.4081      0.00000
     29      20.5553      0.00000
     30      21.2573      0.00000
     31      22.5010      0.00000
     32      24.0600      0.00000
     33      24.0600      0.00000
     34      25.9755      0.00000
     35      25.9755      0.00000
     36      26.3296      0.00000
     37      26.6428      0.00000
     38      30.3075      0.00000
     39      30.3075      0.00000
     40      32.9739      0.00000
     41      32.9739      0.00000
     42      33.3651      0.00000
     43      33.5935      0.00000
     44      35.7242      0.00000
     45      35.7242      0.00000
     46      38.7598      0.00000
     47      40.6389      0.00000
     48      40.6390      0.00000

 soft charge-density along one line, spin component           1
         0         1         2         3         4         5         6         7         8         9
 total charge-density along one line

------------------------ aborting loop because EDIFF is reached ----------------------------------------

         DFTD3 V3.0 Rev 1
 IVDW         = 12
 DF pbe
 parameters
 VDW_S6       =    1.0000
 VDW_S8       =    0.7875
 VDW_A1       =    0.4289
 VDW_A2       =    4.4407
 k1-k3        =   16.0000    1.3333   -4.0000
 VDW_RADIUS   =   50.2022 A
 VDW_CNRADIUS =   21.1671 A
 Edisp (eV)   -0.17742

 E6    (eV) :    -0.1220
 E8    (eV) :    -0.0554
 % E8        : 31.25

  FORCE on cell =-STRESS in cart. coord.  units (eV):
  Direction    XX          YY          ZZ          XY          YZ          ZX
  Alpha Z     4.15614     4.15614     4.15614
  Ewald    1104.50968  1104.50908 -1373.27312    -0.00000    -0.00000    -0.00000
  Hartree  1076.40917  1076.40916 -1065.08157    -0.00000     0.00000     0.00000
  E(xc)     -29.70164   -29.70164   -30.81525     0.00000    -0.00000    -0.00000
  Local   -2267.46500 -2267.46472  2334.80145     0.00000    -0.00000     0.00000
  n-local    -6.69147    -7.53664    -6.49580     0.07650     0.00000    -0.00000
  augment    -0.77710    -0.77708    -0.71678    -0.00000    -0.00000     0.00000
  Kinetic   116.13079   123.87594   137.35869    -0.16676     0.00000     0.00000
  Fock        0.00000     0.00000     0.00000     0.00000     0.00000     0.00000
  vdW        -0.04476    -0.04475    -0.00146     0.00000    -0.00000     0.00000
  Total      -0.02435    -0.02435    -0.06769    -0.00000    -0.00000    -0.00000
  in kB      -0.49355    -0.49355    -1.37181    -0.00000    -0.00000    -0.00000

 VOLUME and BASIS-vectors are now :
  energy-cutoff  :      450.00
  volume of cell :       79.06
      direct lattice vectors                 reciprocal lattice vectors
     2.136485000  1.233500000  0.000000000     0.234029258  0.405350628  0.000000000
    -2.136485000  1.233500000  0.000000000    -0.234029258  0.405350628  0.000000000
     0.000000000  0.000000000 15.000000000     0.000000000  0.000000000  0.066666667

  length of vectors
     2.467000285  2.467000285 15.000000000     0.468058571  0.468058571  0.066666667

 FORCES acting on ions
    electron-ion (+dipol)            ewald-force                    non-local-force                 convergence-correction
   -.145E-03 0.233E-03 0.242E-06   -.219E-03 -.817E-14 0.939E-15   0.195E-16 0.343E-16 -.417E-21   0.720E-09 -.236E-09 -.493E-09
   0.145E-03 0.233E-03 0.242E-06   0.219E-03 0.102E-13 -.150E-20   -.849E-17 -.622E-16 -.390E-21   -.720E-09 -.236E-09 -.493E-09
   -.117E-13 0.467E-03 0.484E-06   0.288E-14 0.198E-14 0.939E-15   0.110E-16 -.280E-16 -.807E-21   -.972E-15 -.473E-09 -.986E-09

 POSITION                                       TOTAL-FORCE (eV/Angst)
     -0.71216      1.23350      1.50000         0.000000      0.000000     -0.000000
      0.71216      1.23350      1.50000        -0.000000     -0.000000      0.000000
    total drift:                               -0.000000      0.000467      0.000000

  FREE ENERGIE OF THE ION-ELECTRON SYSTEM (eV)
  free  energy   TOTEN  =       -18.63069775 eV

  energy  without entropy=      -18.63049052  energy(sigma->0) =      -18.63059414

 stress matrix after NEB project (eV)
     -0.02435      0.00000     -0.00000
     -0.00000     -0.02435      0.00000
     -0.00000     -0.00000     -0.06769
  FORCES: max atom, RMS     0.000000    0.000000
  FORCE total and by dimension    0.000000    0.000000
  Stress total and by dimension    0.075952    0.067693

 reached required accuracy - stopping structural energy minimisation