 vasp.6.3.2 27Jun22 (build Dec 22 2022 13:13:19) complex

 executed on             LinuxIFC date 2023.11.03  19:34:38

 INCAR:
   SYSTEM = Lattice
   ISTART = 0
   ICHARG = 2
   PREC = Accurate
   ENCUT = 450
   LCHARG = .FALSE.
   LWAVE = .FALSE.
   ALGO = Normal
   NELM = 64
   EDIFF = 1E-6
   EDIFFG = -1E-3
   SIGMA = 0.1
   ISMEAR = 0
   NSW = 256
   IBRION = 2
   POTIM = .5
   ISIF = 2
   GGA = PE
   IVDW = 12

 POTCAR:    PAW_PBE B 06Sep2000
 POTCAR:    PAW_PBE C 08Apr2002
 POTCAR:    PAW_PBE B 06Sep2000
   VRHFIN =B: s2p1

   TITEL  = PAW_PBE B 06Sep2000
   POMASS =   10.811; ZVAL   =    3.000    mass and valenz
   ENMAX  =  318.614; ENMIN  =  238.960 eV

   TITEL  = PAW_PBE C 08Apr2002
   POMASS =   12.011; ZVAL   =    4.000    mass and valenz
   ENMAX  =  400.000; ENMIN  =  300.000 eV

  PAW_PBE B 06Sep2000                   :
  PAW_PBE C 08Apr2002                   :

 POSCAR: Graphene-BC3 Top with lattice parameter
  positions in direct lattice
 exchange correlation table for  LEXCH =        8
   RHO(1)=    0.500       N(1)  =     2000
   RHO(2)=  100.500       N(2)  =     4000

 VTST: version 4.2, (08/11/21)

 CHAIN: initializing optimizer

 OPT: Using VASP Conjugate-Gradient optimizer
 CHAIN: Read ICHAIN            0

 POSCAR: Graphene-BC3 Top with lattice parameter
  positions in direct lattice

 ion  position               nearest neighbor table
   1  0.338  0.669  0.100-   3 1.53   5 1.53   7 1.53
   2  0.672  0.336  0.100-   4 1.53   8 1.53   6 1.53
   3  0.164  0.320  0.100-   4 1.39   6 1.39   1 1.53
   4  0.323  0.161  0.100-   3 1.39   5 1.39   2 1.53
   5  0.164  0.844  0.100-   8 1.39   4 1.39   1 1.53
   6  0.846  0.161  0.100-   3 1.39   7 1.39   2 1.53
   7  0.687  0.844  0.100-   8 1.39   6 1.39   1 1.53
   8  0.846  0.685  0.100-   5 1.39   7 1.39   2 1.53
   9  0.167  0.333  0.329-  12 1.46  14 1.46  10 1.46
  10  0.333  0.167  0.329-  11 1.46  13 1.46   9 1.46
  11  0.167  0.833  0.329-  10 1.46  16 1.46  12 1.46
  12  0.333  0.667  0.329-   9 1.46  15 1.46  11 1.46
  13  0.667  0.333  0.329-  10 1.46  16 1.46  14 1.46
  14  0.833  0.167  0.329-   9 1.46  15 1.46  13 1.46
  15  0.667  0.833  0.329-  12 1.46  14 1.46  16 1.46
  16  0.833  0.667  0.329-  11 1.46  13 1.46  15 1.46

  LATTYP: Found a hexagonal cell.
 ALAT       =     5.0440000000
 C/A-ratio  =     2.9738302934

  Lattice vectors:

 A1 = (   4.3682321367,   2.5220000000,   0.0000000000)
 A2 = (  -4.3682321367,   2.5220000000,   0.0000000000)
 A3 = (   0.0000000000,   0.0000000000,  15.0000000000)

Analysis of symmetry for initial positions (statically):
 Subroutine PRICEL returns:
 Original cell was already a primitive cell.

 Routine SETGRP: Setting up the symmetry group for a
 hexagonal supercell.

 Subroutine GETGRP returns: Found  1 space group operations
 (whereof  1 operations were pure point group operations)
 out of a pool of 24 trial point group operations.

The static configuration has the point symmetry C_1 .

Analysis of symmetry for dynamics (positions and initial velocities):
 Subroutine PRICEL returns:
 Original cell was already a primitive cell.

 Routine SETGRP: Setting up the symmetry group for a
 hexagonal supercell.

 Subroutine GETGRP returns: Found  1 space group operations
 (whereof  1 operations were pure point group operations)
 out of a pool of 24 trial point group operations.

The dynamic configuration has the point symmetry C_1 .

 Subroutine INISYM returns: Found  1 space group operations
 (whereof  1 operations are pure point group operations),
 and found     1 'primitive' translations

                                     Primitive cell

  volume of cell :     330.5004

  direct lattice vectors                    reciprocal lattice vectors
     4.368232137  2.522000000  0.000000000     0.114462781  0.198255353  0.000000000
    -4.368232137  2.522000000  0.000000000    -0.114462781  0.198255353  0.000000000
     0.000000000  0.000000000 15.000000000     0.000000000  0.000000000  0.066666667

  length of vectors
     5.044000000  5.044000000 15.000000000     0.228925563  0.228925563  0.066666667

  position of ions in fractional coordinates (direct lattice)
     0.338330343  0.669164322  0.100000000
     0.671655215  0.335841460  0.100000000
     0.163739463  0.319999622  0.100000000
     0.322502184  0.161263966  0.100000000
     0.163764301  0.843763841  0.100000000
     0.846238634  0.161236842  0.100000000
     0.687498504  0.843730003  0.100000000
     0.846267355  0.684995943  0.100000000
     0.166666000  0.333333000  0.328800000
     0.333333000  0.166666000  0.328800000
     0.166666000  0.833333000  0.328800000
     0.333333000  0.666666000  0.328800000
     0.666666000  0.333333000  0.328800000
     0.833333000  0.166666000  0.328800000
     0.666666000  0.833333000  0.328800000
     0.833333000  0.666666000  0.328800000

  ion indices of the primitive-cell ions
   primitive index   ion index
                 1           1
                 2           2
                 3           3
                 4           4
                 5           5
                 6           6
                 7           7
                 8           8
                 9           9
                10          10
                11          11
                12          12
                13          13
                14          14
                15          15
                16          16

 KPOINTS: k-points

Automatic generation of k-mesh.
 Grid dimensions read from file:
 generate k-points for:   17   17    1

 Generating k-lattice:

  Cartesian coordinates                     Fractional coordinates (reciprocal lattice)
     0.006733105  0.011662080  0.000000000     0.058823529  0.000000000  0.000000000
    -0.006733105  0.011662080  0.000000000     0.000000000  0.058823529  0.000000000
     0.000000000  0.000000000  0.066666667     0.000000000  0.000000000  1.000000000

  Length of vectors
     0.013466210  0.013466210  0.066666667

  Shift w.r.t. Gamma in fractional coordinates (k-lattice)
     0.000000000  0.000000000  0.000000000

 Subroutine IBZKPT returns following result:

 Found    145 irreducible k-points:

 Following reciprocal coordinates:
            Coordinates               Weight
  0.000000  0.000000  0.000000      1.000000
  0.058824 -0.000000  0.000000      2.000000
 -0.000000  0.058824  0.000000      2.000000
 -0.058824  0.058824  0.000000      2.000000
  0.117647 -0.000000  0.000000      2.000000
 -0.000000  0.117647  0.000000      2.000000
 -0.117647  0.117647  0.000000      2.000000
  0.176471 -0.000000  0.000000      2.000000
 -0.000000  0.176471  0.000000      2.000000
 -0.176471  0.176471  0.000000      2.000000
  0.235294 -0.000000  0.000000      2.000000
 -0.000000  0.235294  0.000000      2.000000
 -0.235294  0.235294  0.000000      2.000000
  0.294118 -0.000000  0.000000      2.000000
 -0.000000  0.294118  0.000000      2.000000
 -0.294118  0.294118  0.000000      2.000000
  0.352941  0.000000  0.000000      2.000000
  0.000000  0.352941  0.000000      2.000000
 -0.352941  0.352941  0.000000      2.000000
  0.411765 -0.000000  0.000000      2.000000
 -0.000000  0.411765  0.000000      2.000000
 -0.411765  0.411765  0.000000      2.000000
  0.470588 -0.000000  0.000000      2.000000
 -0.000000  0.470588  0.000000      2.000000
 -0.470588  0.470588  0.000000      2.000000
  0.058824  0.058824  0.000000      2.000000
 -0.058824  0.117647  0.000000      2.000000
 -0.117647  0.058824  0.000000      2.000000
  0.117647  0.058824  0.000000      2.000000
 -0.058824  0.176471  0.000000      2.000000
 -0.176471  0.117647  0.000000      2.000000
 -0.117647  0.176471  0.000000      2.000000
  0.058824  0.117647  0.000000      2.000000
  0.176471 -0.058824  0.000000      2.000000
  0.176471  0.058824  0.000000      2.000000
 -0.058824  0.235294  0.000000      2.000000
 -0.235294  0.176471  0.000000      2.000000
 -0.176471  0.235294  0.000000      2.000000
  0.058824  0.176471  0.000000      2.000000
  0.235294 -0.058824  0.000000      2.000000
  0.235294  0.058824  0.000000      2.000000
 -0.058824  0.294118  0.000000      2.000000
 -0.294118  0.235294  0.000000      2.000000
 -0.235294  0.294118  0.000000      2.000000
  0.058824  0.235294  0.000000      2.000000
  0.294118 -0.058824  0.000000      2.000000
  0.294118  0.058824  0.000000      2.000000
 -0.058824  0.352941  0.000000      2.000000
 -0.352941  0.294118  0.000000      2.000000
 -0.294118  0.352941  0.000000      2.000000
  0.058824  0.294118  0.000000      2.000000
  0.352941 -0.058824  0.000000      2.000000
  0.352941  0.058824  0.000000      2.000000
 -0.058824  0.411765  0.000000      2.000000
 -0.411765  0.352941  0.000000      2.000000
 -0.352941  0.411765  0.000000      2.000000
  0.058824  0.352941  0.000000      2.000000
  0.411765 -0.058824  0.000000      2.000000
  0.411765  0.058824  0.000000      2.000000
 -0.058824  0.470588  0.000000      2.000000
[...]
 -0.294118 -0.470588  0.000000      2.000000
  0.235294  0.294118  0.000000      2.000000
 -0.470588 -0.235294  0.000000      2.000000
  0.352941  0.235294  0.000000      2.000000
 -0.235294 -0.411765  0.000000      2.000000
  0.411765  0.352941  0.000000      2.000000
 -0.352941 -0.411765  0.000000      2.000000
  0.235294  0.352941  0.000000      2.000000
 -0.411765 -0.235294  0.000000      2.000000
  0.294118  0.294118  0.000000      2.000000
 -0.294118 -0.411765  0.000000      2.000000
  0.411765  0.294118  0.000000      2.000000
  0.352941  0.294118  0.000000      2.000000
 -0.294118 -0.352941  0.000000      2.000000
  0.352941  0.352941  0.000000      2.000000

 Following cartesian coordinates:
            Coordinates               Weight
  0.000000  0.000000  0.000000      1.000000
  0.006733  0.011662  0.000000      2.000000
 -0.006733  0.011662  0.000000      2.000000
 -0.013466 -0.000000  0.000000      2.000000
  0.013466  0.023324  0.000000      2.000000
 -0.013466  0.023324  0.000000      2.000000
 -0.026932 -0.000000  0.000000      2.000000
  0.020199  0.034986  0.000000      2.000000
 -0.020199  0.034986  0.000000      2.000000
 -0.040399 -0.000000  0.000000      2.000000
  0.026932  0.046648  0.000000      2.000000
 -0.026932  0.046648  0.000000      2.000000
 -0.053865 -0.000000  0.000000      2.000000
  0.033666  0.058310  0.000000      2.000000
 -0.033666  0.058310  0.000000      2.000000
 -0.067331  0.000000  0.000000      2.000000
  0.040399  0.069972  0.000000      2.000000
 -0.040399  0.069972  0.000000      2.000000
 -0.080797  0.000000  0.000000      2.000000
  0.047132  0.081635  0.000000      2.000000
 -0.047132  0.081635  0.000000      2.000000
 -0.094263 -0.000000  0.000000      2.000000
  0.053865  0.093297  0.000000      2.000000
 -0.053865  0.093297  0.000000      2.000000
 -0.107730 -0.000000  0.000000      2.000000
 -0.000000  0.023324  0.000000      2.000000
 -0.020199  0.011662  0.000000      2.000000
 -0.020199 -0.011662  0.000000      2.000000
  0.006733  0.034986  0.000000      2.000000
 -0.026932  0.023324  0.000000      2.000000
 -0.033666 -0.011662  0.000000      2.000000
 -0.033666  0.011662  0.000000      2.000000
 -0.006733  0.034986  0.000000      2.000000
[...]

 POSITION                                       TOTAL-FORCE (eV/Angst)
     -1.44516      2.54090      1.50000        -0.000070     -0.000189      0.046641
      1.46691      2.54091      1.50000         0.004499     -0.000427      0.046639
     -0.68258      1.21999      1.50000        -0.292420      0.505462     -0.016770
      0.70433      1.22006      1.50000         0.292021      0.504997     -0.016878
     -2.97040      2.54099      1.50000         0.585003     -0.000529     -0.016765
      2.99225      2.54085      1.50000        -0.584556     -0.000574     -0.016655
     -0.68246      3.86176      1.50000        -0.292632     -0.502794     -0.016598
      0.70447      3.86185      1.50000         0.288641     -0.505131     -0.016658
     -0.72804      1.26100      4.93200         0.028188     -0.048422      0.022194
      0.72804      1.26100      4.93200        -0.028146     -0.048512      0.022383
     -2.91216      2.52200      4.93200        -0.055826      0.000088      0.022192
     -1.45608      2.52200      4.93200        -0.000384     -0.000426     -0.062397
      1.45608      2.52200      4.93200        -0.000106     -0.000406     -0.062396
      2.91216      2.52200      4.93200         0.055724      0.000103      0.021766
     -0.72804      3.78300      4.93200         0.028038      0.048336      0.021531
      0.72804      3.78300      4.93200        -0.027975      0.048423      0.021771
    total drift:                               -0.000143     -0.000284     -0.000292

  FREE ENERGIE OF THE ION-ELECTRON SYSTEM (eV)
  free  energy   TOTEN  =      -142.26324829 eV

  energy  without entropy=     -142.26319292  energy(sigma->0) =     -142.26322061

 stress matrix after NEB project (eV)
      0.17919      0.00078     -0.00198
      0.00078      0.18130     -0.00341
     -0.00198     -0.00341     -0.46538
  FORCES: max atom, RMS     0.585244    0.360350
  FORCE total and by dimension    1.441399    0.585003
  Stress total and by dimension    0.530646    0.465378

[...]

         DFTD3 V3.0 Rev 1
 Edisp (eV)   -1.87774

[...]

 d Force =-0.8154442E-01[-0.263E+00, 0.100E+00]  d Energy =-0.8287385E-01 0.133E-02
 d Force = 0.9076840E+01[ 0.787E+01, 0.103E+02]  d Ewald  = 0.9072798E+01 0.404E-02

 stress matrix after NEB project (eV)
     -1.35368     -0.00213     -0.00157
     -0.00213     -1.36278     -0.00272
     -0.00157     -0.00272     -0.51060
  FORCES: max atom, RMS     1.554394    0.951198
  FORCE total and by dimension    3.804792    1.554386
  Stress total and by dimension    1.987549    1.362778
 Steepest descent step on ions:
 trial-energy change:    0.082874  1 .order    0.081544   -0.100230    0.263319
  (g-gl).g = 0.100E+00      g.g   = 0.100E+00  gl.gl    = 0.000E+00
 g(Force)  = 0.100E+00   g(Stress)= 0.000E+00 ortho     = 0.000E+00
 gamma     =   0.00000
 trial     =   1.00000
 opt step  =   0.27136  (harmonic =   0.27570) maximal distance =0.00765838
 next E    =  -142.276821   (d E  =  -0.01357)

[...]

 d Force = 0.9594900E-01[ 0.334E-04, 0.192E+00]  d Energy = 0.9643589E-01-0.487E-03
 d Force =-0.6374244E+01[-0.701E+01,-0.574E+01]  d Ewald  =-0.6372725E+01-0.152E-02

[...]

 d Force = 0.2712207E-03[ 0.109E-03, 0.433E-03]  d Energy = 0.2709832E-03 0.237E-06
 d Force = 0.2953069E+00[ 0.298E+00, 0.292E+00]  d Ewald  = 0.2953071E+00-0.133E-06

 stress matrix after NEB project (eV)
     -0.34206      0.00129     -0.00182
      0.00129     -0.33798     -0.00315
     -0.00182     -0.00315     -0.48566
  FORCES: max atom, RMS     0.018817    0.012346
  FORCE total and by dimension    0.049383    0.018761
  Stress total and by dimension    0.683475    0.485664
 Conjugate gradient step on ions:
 trial-energy change:   -0.000271  1 .order   -0.000271   -0.000433   -0.000109
  (g-gl).g = 0.553E-03      g.g   = 0.507E-03  gl.gl    = 0.100E+00
 g(Force)  = 0.507E-03   g(Stress)= 0.000E+00 ortho     =-0.458E-04
 gamma     =   0.00552
 trial     =   0.85427
 opt step  =   1.14320  (harmonic =   1.14320) maximal distance =0.00210956
 next E    =  -142.277100   (d E  =  -0.00029)

[...]

 d Force = 0.1821657E-04[-0.581E-06, 0.370E-04]  d Energy = 0.1761770E-04 0.599E-06
 d Force = 0.1012783E+00[ 0.102E+00, 0.101E+00]  d Ewald  = 0.1012773E+00 0.100E-05

[...]

 d Force =-0.3240144E-04[-0.209E-03, 0.144E-03]  d Energy =-0.3275390E-04 0.352E-06
 d Force = 0.2304503E+00[ 0.230E+00, 0.231E+00]  d Ewald  = 0.2304501E+00 0.168E-06

[...]

 eigenvalues of (default mixing * dielectric matrix)
  average eigenvalue GAMMA=   1.4164
  1.4164  1.4164

[...]

 d Force = 0.5884761E-09[-0.220E-07, 0.231E-07]  d Energy = 0.2025728E-06-0.202E-06
 d Force =-0.1846601E-02[-0.185E-02,-0.185E-02]  d Ewald  =-0.1846601E-02-0.164E-10

[...]

 stress matrix after NEB project (eV)
     -0.34601      0.00356     -0.00180
      0.00356     -0.33521     -0.00312
     -0.00180     -0.00312     -0.48698
  FORCES: max atom, RMS     0.009687    0.005298
  FORCE total and by dimension    0.021193    0.008485
  Stress total and by dimension    0.685048    0.486980
 Conjugate gradient step on ions:
 trial-energy change:   -0.000005  1 .order   -0.000005   -0.000011    0.000001
  (g-gl).g = 0.123E-04      g.g   = 0.135E-04  gl.gl    = 0.159E-03
 g(Force)  = 0.135E-04   g(Stress)= 0.000E+00 ortho     = 0.120E-05
 gamma     =   0.07756
 trial     =   0.80340
 opt step  =   0.74615  (harmonic =   0.74615) maximal distance =0.00030840
 next E    =  -142.277133   (d E  =  -0.00001)

[...]

 d Force = 0.4132574E-07[ 0.231E-07, 0.596E-07]  d Energy = 0.4572743E-06-0.416E-06
 d Force =-0.5502548E-02[-0.550E-02,-0.550E-02]  d Ewald  =-0.5502548E-02-0.136E-10

[...]

 d Force = 0.2816869E-05[ 0.138E-05, 0.425E-05]  d Energy = 0.2576487E-05 0.240E-06
 d Force = 0.4184944E-01[ 0.419E-01, 0.418E-01]  d Ewald  = 0.4184944E-01-0.273E-10

 stress matrix after NEB project (eV)
     -0.34473      0.00276     -0.00180
      0.00276     -0.33629     -0.00313
     -0.00180     -0.00313     -0.48684
  FORCES: max atom, RMS     0.003719    0.001871
  FORCE total and by dimension    0.007483    0.003350
  Stress total and by dimension    0.684828    0.486845
 Conjugate gradient step on ions:
 trial-energy change:   -0.000003  1 .order   -0.000003   -0.000004   -0.000001
  (g-gl).g = 0.208E-04      g.g   = 0.202E-04  gl.gl    = 0.135E-04
 g(Force)  = 0.202E-04   g(Stress)= 0.000E+00 ortho     =-0.403E-06
 gamma     =   1.54071
 trial     =   0.21728
 opt step  =   0.32167  (harmonic =   0.32167) maximal distance =0.00024842
 next E    =  -142.277137   (d E  =  -0.00000)

[...]

 eigenvalue-minimisations  : 14016
 total energy-change (2. order) :-0.1298363E-05  (-0.4116432E-05)
 number of electron      62.0000005 magnetization
 augmentation part        1.2539065 magnetization

 Broyden mixing:
  rms(total) = 0.16498E-03    rms(broyden)= 0.16432E-03
  rms(prec ) = 0.17589E-03
  weight for this iteration     100.00

[...]

--------------------------------------- Iteration     13(   2)  ---------------------------------------

 eigenvalue-minimisations  : 16800
 total energy-change (2. order) : 0.6884329E-07  (-0.3042241E-07)
 number of electron      62.0000005 magnetization
 augmentation part        1.2539065 magnetization

 Free energy of the ion-electron system (eV)
  alpha Z        PSCENC =        62.53960761
  Ewald energy   TEWEN  =      5350.85382360
  -Hartree energ DENC   =     -7400.45665478
  -exchange      EXHF   =         0.00000000
  -V(xc)+E(xc)   XCENC  =       206.32775244
  PAW double counting   =      6299.67843977    -6307.68487093
  entropy T*S    EENTRO =        -0.00009723
  eigenvalues    EBANDS =      -554.01938227
  atomic energy  EATOM  =      2202.35892741
  Solvation  Ediel_sol  =         0.00000000
  free energy    TOTEN  =      -140.40245440 eV

  energy without entropy =     -140.40235717  energy(sigma->0) =     -140.40240578

 average (electrostatic) potential at core
  the test charge radii are     0.7672  0.6991
  (the norm of the test charge is              1.0000)
       1 -31.8696       2 -31.8696       3 -54.5630       4 -54.5630       5 -54.5630
       6 -54.5632       7 -54.5634       8 -54.5632       9 -56.4791      10 -56.4791
      11 -56.4791      12 -56.5122      13 -56.5122      14 -56.4792      15 -56.4792
      16 -56.4792

 E-fermi :  -1.0538     XC(G=0):  -5.0995     alpha+bet : -4.9171

 Fermi energy:        -1.0537584166

[...]

 k-point   145 :       0.3529    0.3529    0.0000
  band No.  band energies     occupation
      1     -18.1411      2.00000
      2     -18.1394      2.00000
      3     -17.8161      2.00000
      4     -17.2333      2.00000
      5     -15.3566      2.00000
      6     -15.1847      2.00000
      7     -13.5371      2.00000
      8     -13.1191      2.00000
      9     -10.9521      2.00000
     10     -10.8103      2.00000
     11     -10.4809      2.00000
     12      -8.9410      2.00000
     13      -8.9058      2.00000
     14      -8.4526      2.00000
     15      -8.4508      2.00000
     16      -7.4314      2.00000
     17      -6.9756      2.00000
     18      -6.9720      2.00000
     19      -6.3011      2.00000
     20      -6.2166      2.00000
     21      -6.0905      2.00000
     22      -6.0124      2.00000
     23      -5.8101      2.00000
     24      -5.6301      2.00000
     25      -5.1031      2.00000
     26      -4.8678      2.00000
     27      -4.0937      2.00000
     28      -4.0917      2.00000
     29      -3.8371      2.00000
     30      -3.7782      2.00000
     31      -1.2330      1.98876
     32      -0.7028      0.00000
     33       0.8085      0.00000
     34       1.3146      0.00000
     35       4.6234      0.00000
     36       5.2053      0.00000
     37       5.2318      0.00000
     38       5.2544      0.00000
     39       5.2599      0.00000
     40       5.6970      0.00000
     41       5.9177      0.00000
     42       5.9391      0.00000
     43       6.3700      0.00000
     44       6.7999      0.00000
     45       7.0334      0.00000
     46       7.0652      0.00000
     47       7.3901      0.00000
     48       7.3994      0.00000

 soft charge-density along one line, spin component           1
         0         1         2         3         4         5         6         7         8         9
 total charge-density along one line

------------------------ aborting loop because EDIFF is reached ----------------------------------------

         DFTD3 V3.0 Rev 1
 Edisp (eV)   -1.87468

 E6    (eV) :    -1.3051
 E8    (eV) :    -0.5696
 % E8        : 30.38

  FORCE on cell =-STRESS in cart. coord.  units (eV):
  Direction    XX          YY          ZZ          XY          YZ          ZX
  Alpha Z    62.53961    62.53961    62.53961
  Ewald    7323.11744  7323.12493 -9295.39312     0.00210    -0.03156    -0.01822
  Hartree  7297.73713  7297.73778 -7195.02719     0.00028    -0.01729    -0.00998
  E(xc)    -226.46615  -226.46613  -234.34969     0.00001    -0.00040    -0.00023
  Local  -15315.45208-15315.45818 15708.87371    -0.00177     0.04925     0.02844
  n-local   -49.96675   -49.96677   -36.24416     0.00000     0.00048     0.00028
  augment    -4.85887    -4.85866    -4.63214     0.00005    -0.00002    -0.00001
  Kinetic   914.11963   914.11930   995.07743    -0.00001    -0.00350    -0.00202
  Fock        0.00000     0.00000     0.00000     0.00000     0.00000     0.00000
  vdW        -1.11142    -1.11143    -1.33129     0.00000    -0.00009    -0.00005
  Total      -0.34147    -0.33955    -0.48683     0.00065    -0.00313    -0.00181
  in kB      -1.65535    -1.64603    -2.36003     0.00315    -0.01519    -0.00877

 VOLUME and BASIS-vectors are now :
  energy-cutoff  :      450.00
  volume of cell :      330.50
      direct lattice vectors                 reciprocal lattice vectors
     4.368232137  2.522000000  0.000000000     0.114462781  0.198255353  0.000000000
    -4.368232137  2.522000000  0.000000000    -0.114462781  0.198255353  0.000000000
     0.000000000  0.000000000 15.000000000     0.000000000  0.000000000  0.066666667

  length of vectors
     5.044000000  5.044000000 15.000000000     0.228925563  0.228925563  0.066666667

 FORCES acting on ions
    electron-ion (+dipol)            ewald-force                    non-local-force                 convergence-correction
   -.279E-02 -.345E-02 0.213E+03   0.247E-02 0.279E-02 -.213E+03   0.369E-03 0.423E-03 0.658E-01   0.186E-04 0.158E-04 0.324E-03
   -.250E-02 -.381E-02 0.213E+03   0.236E-02 0.331E-02 -.213E+03   0.414E-03 0.526E-03 0.658E-01   -.144E-04 -.319E-05 0.325E-03
   0.249E+02 -.432E+02 0.285E+03   -.270E+02 0.468E+02 -.285E+03   0.212E+01 -.367E+01 0.687E-02   -.331E-03 -.216E-03 0.828E-03
   -.249E+02 -.432E+02 0.285E+03   0.270E+02 0.468E+02 -.285E+03   -.212E+01 -.367E+01 0.715E-02   0.228E-03 0.414E-04 0.840E-03
   -.498E+02 -.134E-02 0.285E+03   0.541E+02 0.197E-02 -.285E+03   -.424E+01 -.439E-03 0.687E-02   -.177E-03 -.210E-03 0.828E-03
   0.498E+02 -.351E-03 0.285E+03   -.541E+02 0.186E-03 -.285E+03   0.424E+01 -.455E-03 0.637E-02   0.148E-03 0.219E-03 0.810E-03
   0.249E+02 0.432E+02 0.285E+03   -.270E+02 -.468E+02 -.285E+03   0.212E+01 0.367E+01 0.615E-02   -.258E-03 -.953E-04 0.799E-03
   -.249E+02 0.432E+02 0.285E+03   0.270E+02 -.468E+02 -.285E+03   -.212E+01 0.367E+01 0.638E-02   0.356E-03 0.192E-03 0.808E-03
   0.711E+00 -.121E+01 -.268E+03   -.687E+00 0.117E+01 0.268E+03   -.246E-01 0.421E-01 0.834E-01   -.647E-04 0.123E-03 0.102E-03
   -.701E+00 -.121E+01 -.268E+03   0.677E+00 0.117E+01 0.268E+03   0.243E-01 0.421E-01 0.839E-01   0.718E-04 0.123E-03 0.950E-04
   -.140E+01 0.118E-01 -.268E+03   0.135E+01 -.116E-01 0.268E+03   0.488E-01 -.252E-03 0.834E-01   0.135E-03 0.583E-05 0.104E-03
   -.684E-02 -.121E-01 -.265E+03   0.638E-02 0.113E-01 0.265E+03   0.353E-03 0.645E-03 0.462E-01   0.661E-05 0.560E-05 -.236E-03
   -.722E-02 -.122E-01 -.265E+03   0.683E-02 0.115E-01 0.265E+03   0.391E-03 0.642E-03 0.462E-01   -.207E-05 0.207E-05 -.236E-03
   0.140E+01 0.117E-01 -.268E+03   -.135E+01 -.116E-01 0.268E+03   -.491E-01 -.263E-03 0.825E-01   -.130E-03 0.312E-05 0.113E-03
   0.700E+00 0.121E+01 -.268E+03   -.675E+00 -.117E+01 0.268E+03   -.246E-01 -.427E-01 0.821E-01   -.663E-04 -.114E-03 0.113E-03
   -.690E+00 0.122E+01 -.268E+03   0.666E+00 -.118E+01 0.268E+03   0.243E-01 -.427E-01 0.825E-01   0.698E-04 -.114E-03 0.111E-03
   -.521E-04 -.524E-04 -.768E+00   -.170E-13 -.255E-13 -.171E-12   -.152E-04 -.945E-04 0.762E+00   -.823E-05 -.219E-04 0.573E-02

 POSITION                                       TOTAL-FORCE (eV/Angst)
     -1.44516      2.54092      1.50371         0.000078     -0.000201     -0.000305
      1.46700      2.54092      1.50371         0.000267      0.000037     -0.000304
     -0.68632      1.22660      1.49868         0.000003      0.000379     -0.000162
      0.70818      1.22660      1.49867        -0.000081      0.000399     -0.000215
     -2.96281      2.54094      1.49868         0.000411     -0.000006     -0.000161
      2.98468      2.54093      1.49870         0.000064     -0.000389     -0.000041
     -0.68631      3.85527      1.49871         0.000543      0.000665      0.000011
      0.70819      3.85527      1.49870        -0.000831     -0.000114     -0.000044
     -0.72762      1.26024      4.93320         0.000006     -0.000110      0.000280
      0.72760      1.26024      4.93321        -0.000121     -0.000113      0.000286
     -2.91302      2.52198      4.93320        -0.000023     -0.000097      0.000280
     -1.45609      2.52198      4.92868        -0.000104     -0.000089     -0.000210
      1.45606      2.52198      4.92868         0.000001     -0.000090     -0.000210
      2.91300      2.52198      4.93316        -0.000097     -0.000100      0.000267
     -0.72762      3.78372      4.93314         0.000005     -0.000086      0.000261
      0.72760      3.78372      4.93316        -0.000122     -0.000084      0.000268
    total drift:                               -0.000075     -0.000169     -0.000304

  FREE ENERGIE OF THE ION-ELECTRON SYSTEM (eV)
  free  energy   TOTEN  =      -142.27713635 eV

  energy  without entropy=     -142.27703912  energy(sigma->0) =     -142.27708773

 d Force = 0.3183024E-06[-0.265E-07, 0.663E-06]  d Energy = 0.3963327E-06-0.780E-07
 d Force = 0.2011713E-01[ 0.201E-01, 0.201E-01]  d Ewald  = 0.2011713E-01-0.609E-10

 stress matrix after NEB project (eV)
     -0.34147      0.00065     -0.00181
      0.00065     -0.33955     -0.00313
     -0.00181     -0.00313     -0.48683
  FORCES: max atom, RMS     0.000859    0.000443
  FORCE total and by dimension    0.001773    0.000831
  Stress total and by dimension    0.684780    0.486831

 reached required accuracy - stopping structural energy minimisation