 vasp.6.3.2 27Jun22 (build May 31 2023 12:07:17) complex

 executed on             LinuxIFC date 2024.03.15  17:35:22

 INCAR:
   SYSTEM = BS_HSE06
   ISTART = 1
   ICHARG = 2
   PREC = Accurate
   LORBIT = 11
   ENCUT = 450
   ALGO = Damped
   TIME = 0.4
   NELM = 200
   EDIFF = 1E-6
   EDIFFG = -1E-3
   SIGMA = 0.1
   ISMEAR = 0
   IBRION = -1
   GGA = PE
   LHFCALC = .TRUE.
   AEXX = 0.25
   HFSCREEN = 0.2
   NKRED = 1

 POTCAR:    PAW_PBE B 06Sep2000
 POTCAR:    PAW_PBE C 08Apr2002
|           W    W    AA    RRRRR   N    N  II  N    N   GGGG   !!!           |
|           W    W   A  A   R    R  NN   N  II  NN   N  G    G  !!!           |
|           W    W  A    A  R    R  N N  N  II  N N  N  G       !!!           |
|           W WW W  AAAAAA  RRRRR   N  N N  II  N  N N  G  GGG   !            |
|           WW  WW  A    A  R   R   N   NN  II  N   NN  G    G                |
|           W    W  A    A  R    R  N    N  II  N    N   GGGG   !!!           |
|     For optimal performance we recommend to set                             |
|       NCORE = 2 up to number-of-cores-per-socket                            |
|     This setting can greatly improve the performance of VASP for DFT.       |
|     The default, NCORE=1 might be grossly inefficient on modern             |
|     multi-core architectures or massively parallel machines. Do your        |
|     Unfortunately you need to use the default for GW and RPA                |
|     calculations (for HF NCORE is supported but not extensively tested      |
|     yet).                                                                   |

   TITEL  = PAW_PBE B 06Sep2000
   POMASS =   10.811; ZVAL   =    3.000    mass and valenz
   ENMAX  =  318.614; ENMIN  =  238.960 eV

   TITEL  = PAW_PBE C 08Apr2002
   POMASS =   12.011; ZVAL   =    4.000    mass and valenz
   ENMAX  =  400.000; ENMIN  =  300.000 eV

  PAW_PBE B 06Sep2000                   :
  PAW_PBE C 08Apr2002                   :

 POSCAR: Graphene-Borophene Top with lattice para
  positions in direct lattice
  velocities in cartesian coordinates
 exchange correlation table for  LEXCH =        8
   RHO(1)=    0.500       N(1)  =     2000
   RHO(2)=  100.500       N(2)  =     4000

 ion  position               nearest neighbor table
   1  0.669  0.000  0.101-   3 1.65   6 1.65   7 1.68   8 1.68   2 1.68
   2  0.332  0.000  0.101-   5 1.65   4 1.65   7 1.68   8 1.68   1 1.68
   3  1.000  0.331  0.101-   1 1.65   5 1.65   7 1.68   8 1.68   4 1.68
   4  1.000  0.668  0.101-   6 1.65   2 1.65   7 1.68   8 1.68   3 1.68
   5  0.332  0.331  0.101-   2 1.65   3 1.65   7 1.68   8 1.68   6 1.68
   6  0.669  0.668  0.101-   4 1.65   1 1.65   7 1.68   8 1.68   5 1.68
   7  0.667  0.333  0.088-   5 1.68   6 1.68   2 1.68   1 1.68   4 1.68   3 1.68
   8  0.333  0.667  0.114-   5 1.68   6 1.68   3 1.68   4 1.68   1 1.68   2 1.68
   9  0.167  0.333  0.335-  14 1.44  10 1.44  12 1.44
  10  0.333  0.167  0.334-  11 1.44   9 1.44  13 1.44
  11  0.167  0.833  0.335-  10 1.44  16 1.44  12 1.44
  12  0.333  0.667  0.335-   9 1.44  15 1.44  11 1.44
  13  0.667  0.333  0.334-  10 1.44  16 1.44  14 1.44
  14  0.833  0.167  0.334-   9 1.44  15 1.44  13 1.44
  15  0.667  0.833  0.335-  14 1.44  16 1.44  12 1.44
  16  0.833  0.667  0.334-  11 1.44  15 1.44  13 1.44

  LATTYP: Found a hexagonal cell.
 ALAT       =     4.9790000000
 C/A-ratio  =     3.0126531432

  Lattice vectors:

 A1 = (   4.3119404854,   2.4895000000,   0.0000000000)
 A2 = (  -4.3119404854,   2.4895000000,   0.0000000000)
 A3 = (   0.0000000000,   0.0000000000,  15.0000000000)

Analysis of symmetry for initial positions (statically):
 Subroutine PRICEL returns:
 Original cell was already a primitive cell.

 Routine SETGRP: Setting up the symmetry group for a
 hexagonal supercell.

 Subroutine GETGRP returns: Found  6 space group operations
 (whereof  6 operations were pure point group operations)
 out of a pool of 24 trial point group operations.

The static configuration has the point symmetry C_3v.

Analysis of symmetry for dynamics (positions and initial velocities):
 Subroutine PRICEL returns:
 Original cell was already a primitive cell.

 Routine SETGRP: Setting up the symmetry group for a
 hexagonal supercell.

 Subroutine GETGRP returns: Found  6 space group operations
 (whereof  6 operations were pure point group operations)
 out of a pool of 24 trial point group operations.

The dynamic configuration has the point symmetry C_3v.

 Subroutine INISYM returns: Found  6 space group operations
 (whereof  6 operations are pure point group operations),
 and found     1 'primitive' translations

                                     Primitive cell

  volume of cell :     322.0373

  direct lattice vectors                    reciprocal lattice vectors
     4.311940485  2.489500000  0.000000000     0.115957074  0.200843543  0.000000000
    -4.311940485  2.489500000  0.000000000    -0.115957074  0.200843543  0.000000000
     0.000000000  0.000000000 15.000000000     0.000000000  0.000000000  0.066666667

  length of vectors
     4.979000000  4.979000000 15.000000000     0.231914147  0.231914147  0.066666667

  position of ions in fractional coordinates (direct lattice)
     0.668529486  0.000031744  0.101490874
     0.331501257  0.000031744  0.101490874
     0.999968256  0.331469514  0.101490874
     0.999968256  0.668497743  0.101490874
     0.331501257  0.331469514  0.101490874
     0.668529486  0.668497743  0.101490874
     0.666666000  0.333333000  0.088455217
     0.333333000  0.666666000  0.114424057
     0.166653576  0.333308152  0.334568638
     0.333330518  0.166664759  0.334466239
     0.166653576  0.833345424  0.334568638
     0.333333000  0.666666000  0.334626021
     0.666666000  0.333333000  0.334444829
     0.833334241  0.166664759  0.334466239
     0.666690848  0.833345424  0.334568638
     0.833334241  0.666668482  0.334466239

  ion indices of the primitive-cell ions
   primitive index   ion index
                 1           1
                 2           2
                 3           3
                 4           4
                 5           5
                 6           6
                 7           7
                 8           8
                 9           9
                10          10
                11          11
                12          12
                13          13
                14          14
                15          15
                16          16

 KPOINTS: k-points

Automatic generation of k-mesh.
 Grid dimensions read from file:
 generate k-points for:   17   17    1

 Generating k-lattice:

  Cartesian coordinates                     Fractional coordinates (reciprocal lattice)
     0.006821004  0.011814326  0.000000000     0.058823529 -0.000000000  0.000000000
    -0.006821004  0.011814326  0.000000000    -0.000000000  0.058823529  0.000000000
     0.000000000  0.000000000  0.066666667     0.000000000  0.000000000  1.000000000

  Length of vectors
     0.013642009  0.013642009  0.066666667

  Shift w.r.t. Gamma in fractional coordinates (k-lattice)
     0.000000000  0.000000000  0.000000000

 Subroutine IBZKPT returns following result:

 Found     33 irreducible k-points:

 Following reciprocal coordinates:
            Coordinates               Weight
  0.000000  0.000000  0.000000      1.000000
  0.058824  0.000000  0.000000      6.000000
  0.117647 -0.000000  0.000000      6.000000
  0.176471 -0.000000  0.000000      6.000000
  0.235294 -0.000000  0.000000      6.000000
  0.294118  0.000000  0.000000      6.000000
  0.352941  0.000000  0.000000      6.000000
  0.411765 -0.000000  0.000000      6.000000
  0.470588 -0.000000  0.000000      6.000000
  0.058824  0.058824  0.000000      6.000000
  0.117647  0.058824  0.000000     12.000000
  0.176471  0.058824  0.000000     12.000000
  0.235294  0.058824  0.000000     12.000000
  0.294118  0.058824  0.000000     12.000000
  0.352941  0.058824  0.000000     12.000000
  0.411765  0.058824  0.000000     12.000000
  0.470588  0.058824  0.000000      6.000000
  0.117647  0.117647  0.000000      6.000000
  0.176471  0.117647  0.000000     12.000000
  0.235294  0.117647  0.000000     12.000000
  0.294118  0.117647  0.000000     12.000000
  0.352941  0.117647  0.000000     12.000000
  0.411765  0.117647  0.000000     12.000000
  0.176471  0.176471  0.000000      6.000000
  0.235294  0.176471  0.000000     12.000000
  0.294118  0.176471  0.000000     12.000000
  0.352941  0.176471  0.000000     12.000000
  0.411765  0.176471  0.000000      6.000000
  0.235294  0.235294  0.000000      6.000000
  0.294118  0.235294  0.000000     12.000000
  0.352941  0.235294  0.000000     12.000000
  0.294118  0.294118  0.000000      6.000000
  0.352941  0.294118  0.000000      6.000000

 Following cartesian coordinates:
            Coordinates               Weight
  0.000000  0.000000  0.000000      1.000000
  0.006821  0.011814  0.000000      6.000000
  0.013642  0.023629  0.000000      6.000000
  0.020463  0.035443  0.000000      6.000000
  0.027284  0.047257  0.000000      6.000000
  0.034105  0.059072  0.000000      6.000000
  0.040926  0.070886  0.000000      6.000000
  0.047747  0.082700  0.000000      6.000000
  0.054568  0.094515  0.000000      6.000000
  0.000000  0.023629  0.000000      6.000000
  0.006821  0.035443  0.000000     12.000000
  0.013642  0.047257  0.000000     12.000000
  0.020463  0.059072  0.000000     12.000000
  0.027284  0.070886  0.000000     12.000000
  0.034105  0.082700  0.000000     12.000000
  0.040926  0.094515  0.000000     12.000000
  0.047747  0.106329  0.000000      6.000000
  0.000000  0.047257  0.000000      6.000000
  0.006821  0.059072  0.000000     12.000000
  0.013642  0.070886  0.000000     12.000000
  0.020463  0.082700  0.000000     12.000000
  0.027284  0.094515  0.000000     12.000000
  0.034105  0.106329  0.000000     12.000000
  0.000000  0.070886  0.000000      6.000000
  0.006821  0.082700  0.000000     12.000000
  0.013642  0.094515  0.000000     12.000000
  0.020463  0.106329  0.000000     12.000000
  0.027284  0.118143  0.000000      6.000000
  0.000000  0.094515  0.000000      6.000000
  0.006821  0.106329  0.000000     12.000000
  0.013642  0.118143  0.000000     12.000000
  0.000000  0.118143  0.000000      6.000000
  0.006821  0.129958  0.000000      6.000000

 Subroutine IBZKPT_HF returns following result:

 Found    289 k-points in 1st BZ
 the following    289 k-points will be used (e.g. in the exchange kernel)
 Following reciprocal coordinates:   # in IRBZ
  0.000000  0.000000  0.000000    0.00346021   1 t-inv F
  0.058824  0.000000  0.000000    0.00346021   2 t-inv F
  0.117647 -0.000000  0.000000    0.00346021   3 t-inv F
  0.176471 -0.000000  0.000000    0.00346021   4 t-inv F
  0.235294 -0.000000  0.000000    0.00346021   5 t-inv F
  0.294118  0.000000  0.000000    0.00346021   6 t-inv F
  0.352941  0.000000  0.000000    0.00346021   7 t-inv F
  0.411765 -0.000000  0.000000    0.00346021   8 t-inv F
  0.470588 -0.000000  0.000000    0.00346021   9 t-inv F
  0.058824  0.058824  0.000000    0.00346021  10 t-inv F
  0.117647  0.058824  0.000000    0.00346021  11 t-inv F
[...]
 apply_gfac_exchange                  6525.219622    32959872
 racc0mu_hf_                          3453.973592      696201
 rpromu_hf                            3336.947820      724812
 fock_set_gfac_vkpt                   1491.545120      696201
 phaser_hf                             418.704325      696201
 m_ibcast_z_from                       390.871873      232881
 depsum_two_bands_rholm_trace_         347.644370    33236445
 fock_fwd                              324.814272        2376
 calc_dllmm_trans                      303.375781    34619310
 lapack                                299.645856        5184
 m_sumb_d                              203.370145       27826
 m_alltoall_d                          119.019238       53982
 overl_fock                             82.059804    32959872
 fock_all_dblbuf                        61.560629          36
 fft3d_mpi                              48.088360    67096892
 fock_set_fsg                           46.485636           7
 total_time                             28.134355           1
 apply_gfac_weight                      23.200430      276573
 m_bcast_z                              19.809094       17857
 fftwav                                 17.192636       86166
 bg_ppotrf_trtri                        16.233112        1386
 depsum_two_bands_rholm_trace_m         15.897364      696201
 depsum_two_bands_rholm_trace           15.632206    33236445
 w1_copy                                11.897888       97524
 gemm                                    8.608033      103008
 phase                                   8.599361        2646
 vhamil                                  7.546597        5283
 orth1                                   6.145782       14595
 waitred                                 6.073694        2376
 waitgth                                 6.016812        2376
 dllmm_trans_eccp_nl_fock                6.002013       28611
 eccp_nl_fock                            5.526363    13275504
 pdssyex_zheevx                          5.521430          99
 orth1_nosubindex                        4.390113        1386
 eddav                                   4.321625          33
 wfinit                                  3.301747           4
 work_mul_crexp                          3.223561      103008
 wrk_allocate                            3.017151           1
 fock_charge_mu                          2.864754      696201
 fock_force                              2.517915           1
 proj1                                   2.515464        4425
 sphpro_fast                             2.402913           5
 fock_ace_acc_apply                      2.300808        5184
 crexp_mul_wave                          2.161092       70800
 ggemm                                   2.078059        5184
 racc0mu_hf                              1.762253      696201
 pw_charge_trace_mu                      1.203062      696201
 edwav                                   1.024394           2
 eccp                                    0.754580        1254
 fock_bck                                0.679267        2376
 spher                                   0.664016           9
 distri_slice                            0.566403        1386
 depsum_two_bands_rholm_trace_m          0.553701      696201
 w1_dot                                  0.537005        1056
 redis_pw                                0.411397       31266
 fft_and_gather                          0.358694        2409
 dfftw_execute                           0.356235         177
 pw_charge                               0.346524         867
 w1_daxpy                                0.333556        5184
 m_bcast_d                               0.301351       10374
 apply_precond                           0.286592        4128
 fftbas_plan_mpi                         0.286515          59
 lincom_slice                            0.272900        1386
 hamiltmu                                0.240054        5184
 m_alltoallv_z                           0.213181          65
 elmin_all                               0.208735           1
 fftext_mpi                              0.203584        6471
 fornl                                   0.198354           1
 projxyz                                 0.184543          33
 inisym                                  0.174537           1
 force_and_stress                        0.172692           1
 soft_charge_sym                         0.167728           3
 orthch                                  0.163844           6
 reduce                                  0.144015        2376
 kinhamil                                0.138705        5283
 vnlac0                                  0.137861        6438
 redis_proj                              0.123020       22716
 densta                                  0.120319           5
 fftwav_mpi                              0.086343       86166
 eddiag                                  0.076807           1
 ggaall_grid                             0.064165           4
 w1_dscal                                0.050668          66
 overl1                                  0.045826        6372
 wrk_deallocate                          0.040769           1
 lincom                                  0.032009         165
 overl                                   0.030657        9840
 contraction                             0.026377       28611
 orth1_distri                            0.022817        1386
 recon_slice                             0.020251        1386
 rspher_all                              0.019890           4
 newband                                 0.017044        6240
 setup_precond                           0.012693        1056
 potlok                                  0.012568           3
 fock_ace_construct                      0.010646          33
 w1_projall                              0.009028        4128
 lincom_distri                           0.008995        1386
 map_gather                              0.004726          65
 posmap                                  0.003573           2
 setdij_                                 0.003267          11
 depsum_sym                              0.002964           3
 brgrid                                  0.002318           1
 m_sum_g                                 0.002035        2772
 forhar                                  0.002025           1
 set_dd_paw                              0.001885           4
 truncate_high_frequency_w1              0.001855        6240
 choleski                                0.001627        1386
 map_scatter                             0.001330          65
 crpa_reader                             0.001175           1
 augmentation_charge                     0.001116           3
 fewald                                  0.001085           1
 forloc                                  0.001064           1
 rotate_active_occupied_orbital          0.000999           1
 set_dd_magatom                          0.000739           2
 pothar                                  0.000716           3
 stufak                                  0.000537           1
 proall                                  0.000468           4
 proj                                    0.000413         231
 fft_gq                                  0.000330           3
 hamilt_local                            0.000243          99
 set_charge                              0.000205           3
 rsp                                     0.000181           1
 map_forward                             0.000104          58
 map_backward                            0.000077          60
 redis_pw_all                            0.000049           2
 fftbrc_mpi                              0.000041          59
 rcp                                     0.000035           1
 fordep                                  0.000013           1
 FERMAT_RAZOR                            0.000011           1
 potlok_metagga                          0.000003           3
 shift_bands_between_low_high            0.000002          33
 redis_pw_over_bands                     0.000002           3
 vectorpot                               0.000002           1
  summed up times    84115.4175989628

 Accumulative profile

 total_time                          84115.417599           1
 fock_all_dblbuf                     82595.357790          36
 fock_fwd                            66194.481999        2376
 fft3d                               34912.006670    67182999
 fft3d_mpi                           34866.755466    67096892
 reduce                              16021.625075        2376
 m_ireduce_z_to                      16021.481059      228096
 fock_charge_mu                      11855.502429      696201
 pw_charge_trace_mu                   8017.174188      696201
 pw_charge_trace_mu_                  8015.971126      696201
 vhamil_trace                         7455.585544    32959872
 elmin_all                            7041.866675           1
 apply_gfac_exchange                  6525.219622    32959872
 edwav                                4807.031850           2
 racc0mu_hf                           3455.735845      696201
 racc0mu_hf_                          3453.973592      696201
 rpromu_hf                            3336.947820      724812
 eddiag                               2232.434830           1
 fock_set_gfac_vkpt                   1910.249445      696201
 force_and_stress                      718.984287           1
 fock_force                            718.004063           1
 eddav                                 637.626185          33
 phaser_hf                             418.704325      696201
 fft_and_gather                        402.153880        2409
 m_ibcast_z_from                       390.871873      232881
 depsum_two_bands_rholm_trace_m        379.727642      696201
 depsum_two_bands_rholm_trace_m        379.173940      696201
 depsum_two_bands_rholm_trace          363.276576    33236445
 depsum_two_bands_rholm_trace_         347.644370    33236445
 calc_dllmm_trans                      303.375781    34619310
 lapack                                299.645856        5184
 m_sumb_d                              203.370145       27826
 m_alltoall_d                          119.019238       53982
 fftwav_mpi                            111.480751       86166
 fftwav                                111.394408       86166
 redis_pw                               96.959006       31266
 overl_fock                             82.059804    32959872
 fock_ace_acc_apply                     51.991066        5184
 fock_set_fsg                           46.485636           7
 fftext_mpi                             40.801484        6471
 fock_bck                               37.437632        2376
 fock_ace_construct                     37.307681          33
 dllmm_trans_eccp_nl_fock               27.799627       28611
 hamiltmu                               23.541896        5184
 apply_gfac_weight                      23.200430      276573
 redis_proj                             22.594650       22716
 m_bcast_z                              19.809094       17857
 choleski                               16.234739        1386
 bg_ppotrf_trtri                        16.233112        1386
 vnlac0                                 11.969455        6438
 w1_copy                                11.897888       97524
 wrk_allocate                           10.028816           1
 kinhamil                                9.851510        5283
 orth1_distri                            9.813460        1386
 newband                                 8.638694        6240
 gemm                                    8.608033      103008
 phase                                   8.599361        2646
 m_sum_g                                 8.491385        2772
 vhamil                                  7.546597        5283
 wfinit                                  7.050666           4
 orthch                                  6.435625           6
 orth1                                   6.145782       14595
 waitred                                 6.073694        2376
 waitgth                                 6.016812        2376
 eccp_nl_fock                            5.526363    13275504
 pdssyex_zheevx                          5.521430          99
 proj1                                   4.676556        4425
 w1_projall                              4.454311        4128
 orth1_nosubindex                        4.390113        1386
 lincom_distri                           3.959404        1386
 work_mul_crexp                          3.223561      103008
 set_charge                              2.793925           3
 soft_charge_sym                         2.747762           3
 sphpro_fast                             2.550716           5
 crexp_mul_wave                          2.161092       70800
 ggemm                                   2.078059        5184
 proall                                  0.968701           4
 fftbrc_mpi                              0.862208          59
 fftbas_plan_mpi                         0.862167          59
 eccp                                    0.754580        1254
 spher                                   0.664016           9
 distri_slice                            0.566403        1386
 w1_dot                                  0.537005        1056
 fornl                                   0.509737           1
 hamilt_local                            0.367635          99
 dfftw_execute                           0.356235         177
 pw_charge                               0.346524         867
 w1_daxpy                                0.333556        5184
 fft_gq                                  0.306113           3
 m_bcast_d                               0.301351       10374
 apply_precond                           0.286592        4128
 lincom_slice                            0.272900        1386
 densta                                  0.213286           5
 m_alltoallv_z                           0.213181          65
 potlok                                  0.209172           3
 redis_pw_over_bands                     0.204844           3
 redis_pw_all                            0.204842           2
 projxyz                                 0.184547          33
 inisym                                  0.178110           1
 proj                                    0.164115         231
 set_dd_paw                              0.132750           4
 map_backward                            0.120220          60
 map_forward                             0.099198          58
 ggaall_grid                             0.064165           4
 w1_dscal                                0.050668          66
 overl1                                  0.045826        6372
 wrk_deallocate                          0.040769           1
 augmentation_charge                     0.032674           3
 lincom                                  0.032009         165
 overl                                   0.030657        9840
 contraction                             0.026377       28611
 recon_slice                             0.020251        1386
 rspher_all                              0.019890           4
 depsum_sym                              0.013284           3
 setup_precond                           0.012693        1056
 setdij_                                 0.011614          11
 fordep                                  0.005197           1
 map_gather                              0.004726          65
 posmap                                  0.003573           2
 forhar                                  0.002797           1
 brgrid                                  0.002318           1
 fewald                                  0.002198           1
 truncate_high_frequency_w1              0.001855        6240
 map_scatter                             0.001330          65
 forloc                                  0.001316           1
 crpa_reader                             0.001175           1
 pothar                                  0.001128           3
 rotate_active_occupied_orbital          0.000999           1
 set_dd_magatom                          0.000739           2
 stufak                                  0.000537           1
 rsp                                     0.000181           1
 rcp                                     0.000035           1
 FERMAT_RAZOR                            0.000011           1
 potlok_metagga                          0.000003           3
 shift_bands_between_low_high            0.000002          33
 vectorpot                               0.000002           1

Profiling took  74.959451 46.722153  0.058491  0.058411 seconds
Profiling took  71.780580 seconds