 vasp.6.3.2 27Jun22 (build Dec 22 2022 13:13:19) complex

 executed on             LinuxIFC date 2024.03.04  17:40:38

 INCAR:
   SYSTEM = SC
   ISTART = 0
   ICHARG = 2
   PREC = Accurate
   ENCUT = 450
   LCHARG = .TRUE.
   LWAVE = .TRUE.
   ALGO = Normal
   NELM = 64
   EDIFF = 1E-6
   EDIFFG = -1E-3
   SIGMA = 0.1
   ISMEAR = 0
   SYMPREC = 1E-6
   IBRION = -1
   GGA = PE
   IVDW = 12

 POTCAR:    PAW_PBE B 06Sep2000
 POTCAR:    PAW_PBE C 08Apr2002
 POTCAR:    PAW_PBE B 06Sep2000
   VRHFIN =B: s2p1

   TITEL  = PAW_PBE B 06Sep2000
   POMASS =   10.811; ZVAL   =    3.000    mass and valenz
   ENMAX  =  318.614; ENMIN  =  238.960 eV

   TITEL  = PAW_PBE C 08Apr2002
   POMASS =   12.011; ZVAL   =    4.000    mass and valenz
   ENMAX  =  400.000; ENMIN  =  300.000 eV

  PAW_PBE B 06Sep2000                   :
  PAW_PBE C 08Apr2002                   :

 POSCAR: Graphene-Borophene Top with lattice para
  positions in direct lattice
  velocities in cartesian coordinates
 exchange correlation table for  LEXCH =        8
   RHO(1)=    0.500       N(1)  =     2000
   RHO(2)=  100.500       N(2)  =     4000

 VTST: version 4.2, (08/11/21)

 CHAIN: initializing optimizer

 OPT: Using VASP Dynamics algorithm
 CHAIN: Read ICHAIN            0

 POSCAR: Graphene-Borophene Top with lattice para
  positions in direct lattice
  velocities in cartesian coordinates

 ion  position               nearest neighbor table
   1  0.669  0.000  0.101-   3 1.65   6 1.65   7 1.68   8 1.68   2 1.68
   2  0.332  0.000  0.101-   5 1.65   4 1.65   7 1.68   8 1.68   1 1.68
   3  1.000  0.331  0.101-   1 1.65   5 1.65   7 1.68   8 1.68   4 1.68
   4  1.000  0.668  0.101-   6 1.65   2 1.65   7 1.68   8 1.68   3 1.68
   5  0.332  0.331  0.101-   2 1.65   3 1.65   7 1.68   8 1.68   6 1.68
   6  0.669  0.668  0.101-   4 1.65   1 1.65   7 1.68   8 1.68   5 1.68
   7  0.667  0.333  0.088-   5 1.68   6 1.68   2 1.68   1 1.68   4 1.68   3 1.68
   8  0.333  0.667  0.114-   5 1.68   6 1.68   3 1.68   4 1.68   1 1.68   2 1.68
   9  0.167  0.333  0.335-  14 1.44  10 1.44  12 1.44
  10  0.333  0.167  0.334-  11 1.44   9 1.44  13 1.44
  11  0.167  0.833  0.335-  16 1.44  10 1.44  12 1.44
  12  0.333  0.667  0.335-   9 1.44  15 1.44  11 1.44
  13  0.667  0.333  0.334-  10 1.44  16 1.44  14 1.44
  14  0.833  0.167  0.334-   9 1.44  15 1.44  13 1.44
  15  0.667  0.833  0.335-  14 1.44  16 1.44  12 1.44
  16  0.833  0.667  0.334-  11 1.44  15 1.44  13 1.44

  LATTYP: Found a hexagonal cell.
 ALAT       =     4.9790000000
 C/A-ratio  =     3.0126531432

  Lattice vectors:

 A1 = (   4.3119404854,   2.4895000000,   0.0000000000)
 A2 = (  -4.3119404854,   2.4895000000,   0.0000000000)
 A3 = (   0.0000000000,   0.0000000000,  15.0000000000)

Analysis of symmetry for initial positions (statically):
 Subroutine PRICEL returns:
 Original cell was already a primitive cell.

 Routine SETGRP: Setting up the symmetry group for a
 hexagonal supercell.

 Subroutine GETGRP returns: Found  2 space group operations
 (whereof  1 operations were pure point group operations)
 out of a pool of 24 trial point group operations.

The static configuration has the point symmetry C_1 .
 The point group associated with its full space group is C_1h.

Analysis of symmetry for dynamics (positions and initial velocities):
 Subroutine PRICEL returns:
 Original cell was already a primitive cell.

 Routine SETGRP: Setting up the symmetry group for a
 hexagonal supercell.

 Subroutine GETGRP returns: Found  2 space group operations
 (whereof  1 operations were pure point group operations)
 out of a pool of 24 trial point group operations.

The dynamic configuration has the point symmetry C_1 .
 The point group associated with its full space group is C_1h.

 Subroutine INISYM returns: Found  2 space group operations
 (whereof  1 operations are pure point group operations),
 and found     1 'primitive' translations

                                     Primitive cell

  volume of cell :     322.0373

  direct lattice vectors                    reciprocal lattice vectors
     4.311940485  2.489500000  0.000000000     0.115957074  0.200843543  0.000000000
    -4.311940485  2.489500000  0.000000000    -0.115957074  0.200843543  0.000000000
     0.000000000  0.000000000 15.000000000     0.000000000  0.000000000  0.066666667

  length of vectors
     4.979000000  4.979000000 15.000000000     0.231914147  0.231914147  0.066666667

  position of ions in fractional coordinates (direct lattice)
     0.668529486  0.000031744  0.101490874
     0.331501257  0.000031744  0.101490874
     0.999968256  0.331469514  0.101490874
     0.999968256  0.668497743  0.101490874
     0.331501257  0.331469514  0.101490874
     0.668529486  0.668497743  0.101490874
     0.666666000  0.333333000  0.088455217
     0.333333000  0.666666000  0.114424057
     0.166653576  0.333308152  0.334568638
     0.333330518  0.166664759  0.334466239
     0.166653576  0.833345424  0.334568638
     0.333333000  0.666666000  0.334626021
     0.666666000  0.333333000  0.334444829
     0.833334241  0.166664759  0.334466239
     0.666690848  0.833345424  0.334568638
     0.833334241  0.666668482  0.334466239

  ion indices of the primitive-cell ions
   primitive index   ion index
                 1           1
                 2           2
                 3           3
                 4           4
                 5           5
                 6           6
                 7           7
                 8           8
                 9           9
                10          10
                11          11
                12          12
                13          13
                14          14
                15          15
                16          16

 KPOINTS: k-points

Automatic generation of k-mesh.
 Grid dimensions read from file:
 generate k-points for:   17   17    1

 Generating k-lattice:

  Cartesian coordinates                     Fractional coordinates (reciprocal lattice)
     0.006821004  0.011814326  0.000000000     0.058823529 -0.000000000  0.000000000
    -0.006821004  0.011814326  0.000000000    -0.000000000  0.058823529  0.000000000
     0.000000000  0.000000000  0.066666667     0.000000000  0.000000000  1.000000000

  Length of vectors
     0.013642009  0.013642009  0.066666667

  Shift w.r.t. Gamma in fractional coordinates (k-lattice)
     0.000000000  0.000000000  0.000000000

 Subroutine IBZKPT returns following result:

 Found     81 irreducible k-points:

 Following reciprocal coordinates:
            Coordinates               Weight
  0.000000  0.000000  0.000000      1.000000
  0.058824 -0.000000  0.000000      4.000000
 -0.058824  0.058824  0.000000      2.000000
  0.117647 -0.000000  0.000000      4.000000
 -0.117647  0.117647  0.000000      2.000000
  0.176471 -0.000000  0.000000      4.000000
 -0.176471  0.176471  0.000000      2.000000
  0.235294 -0.000000  0.000000      4.000000
 -0.235294  0.235294  0.000000      2.000000
  0.294118 -0.000000  0.000000      4.000000
 -0.294118  0.294118  0.000000      2.000000
  0.352941 -0.000000  0.000000      4.000000
 -0.352941  0.352941  0.000000      2.000000
  0.411765  0.000000  0.000000      4.000000
 -0.411765  0.411765  0.000000      2.000000
  0.470588 -0.000000  0.000000      4.000000
 -0.470588  0.470588  0.000000      2.000000
  0.058824  0.058824  0.000000      2.000000
 -0.058824  0.117647  0.000000      4.000000
  0.117647  0.058824  0.000000      4.000000
 -0.058824  0.176471  0.000000      4.000000
 -0.176471  0.117647  0.000000      4.000000
  0.176471  0.058824  0.000000      4.000000
 -0.058824  0.235294  0.000000      4.000000
 -0.235294  0.176471  0.000000      4.000000
  0.235294  0.058824  0.000000      4.000000
 -0.058824  0.294118  0.000000      4.000000
 -0.294118  0.235294  0.000000      4.000000
  0.294118  0.058824  0.000000      4.000000
 -0.058824  0.352941  0.000000      4.000000
 -0.352941  0.294118  0.000000      4.000000
  0.352941  0.058824  0.000000      4.000000
 -0.058824  0.411765  0.000000      4.000000
 -0.411765  0.352941  0.000000      4.000000
  0.411765  0.058824  0.000000      4.000000
 -0.058824  0.470588  0.000000      4.000000
 -0.470588  0.411765  0.000000      4.000000
  0.470588  0.058824  0.000000      4.000000
  0.470588  0.470588  0.000000      2.000000
  0.117647  0.117647  0.000000      2.000000
 -0.117647  0.235294  0.000000      4.000000
  0.176471  0.117647  0.000000      4.000000
 -0.117647  0.294118  0.000000      4.000000
 -0.294118  0.176471  0.000000      4.000000
  0.235294  0.117647  0.000000      4.000000
 -0.117647  0.352941  0.000000      4.000000
 -0.352941  0.235294  0.000000      4.000000
  0.294118  0.117647  0.000000      4.000000
 -0.117647  0.411765  0.000000      4.000000
 -0.411765  0.294118  0.000000      4.000000
  0.352941  0.117647  0.000000      4.000000
 -0.117647  0.470588  0.000000      4.000000
 -0.470588  0.352941  0.000000      4.000000
  0.411765  0.117647  0.000000      4.000000
 -0.117647 -0.470588  0.000000      4.000000
  0.470588  0.411765  0.000000      4.000000
  0.176471  0.176471  0.000000      2.000000
 -0.176471  0.352941  0.000000      4.000000
  0.235294  0.176471  0.000000      4.000000
 -0.176471  0.411765  0.000000      4.000000
[...]
  0.470588  0.352941  0.000000      4.000000
  0.411765  0.176471  0.000000      4.000000
  0.411765  0.411765  0.000000      2.000000
  0.235294  0.235294  0.000000      2.000000
 -0.235294  0.470588  0.000000      4.000000
  0.294118  0.235294  0.000000      4.000000
 -0.235294 -0.470588  0.000000      4.000000
  0.470588  0.294118  0.000000      4.000000
  0.352941  0.235294  0.000000      4.000000
 -0.235294 -0.411765  0.000000      4.000000
  0.411765  0.352941  0.000000      4.000000
  0.294118  0.294118  0.000000      2.000000
 -0.294118 -0.411765  0.000000      4.000000
  0.352941  0.294118  0.000000      4.000000
  0.352941  0.352941  0.000000      2.000000

 Following cartesian coordinates:
            Coordinates               Weight
  0.000000  0.000000  0.000000      1.000000
  0.006821  0.011814  0.000000      4.000000
 -0.013642 -0.000000  0.000000      2.000000
  0.013642  0.023629  0.000000      4.000000
 -0.027284  0.000000  0.000000      2.000000
  0.020463  0.035443  0.000000      4.000000
 -0.040926 -0.000000  0.000000      2.000000
  0.027284  0.047257  0.000000      4.000000
 -0.054568  0.000000  0.000000      2.000000
  0.034105  0.059072  0.000000      4.000000
 -0.068210 -0.000000  0.000000      2.000000
  0.040926  0.070886  0.000000      4.000000
 -0.081852 -0.000000  0.000000      2.000000
  0.047747  0.082700  0.000000      4.000000
 -0.095494 -0.000000  0.000000      2.000000
  0.054568  0.094515  0.000000      4.000000
 -0.109136  0.000000  0.000000      2.000000
 -0.000000  0.023629  0.000000      2.000000
 -0.020463  0.011814  0.000000      4.000000
  0.006821  0.035443  0.000000      4.000000
 -0.027284  0.023629  0.000000      4.000000
 -0.034105 -0.011814  0.000000      4.000000
  0.013642  0.047257  0.000000      4.000000
 -0.034105  0.035443  0.000000      4.000000
 -0.047747 -0.011814  0.000000      4.000000
  0.020463  0.059072  0.000000      4.000000
[...]
 k-point  38 :   0.4706 0.0588 0.0000  plane waves:    6972
 k-point  39 :   0.4706 0.4706 0.0000  plane waves:    6972
 k-point  40 :   0.1176 0.1176 0.0000  plane waves:    7003
 k-point  41 :  -0.1176 0.2353 0.0000  plane waves:    7003
 k-point  42 :   0.1765 0.1176 0.0000  plane waves:    7000
 k-point  43 :  -0.1176 0.2941 0.0000  plane waves:    7000
 k-point  44 :  -0.2941 0.1765 0.0000  plane waves:    7000
 k-point  45 :   0.2353 0.1176 0.0000  plane waves:    6996
 k-point  46 :  -0.1176 0.3529 0.0000  plane waves:    6996
 k-point  47 :  -0.3529 0.2353 0.0000  plane waves:    6996
 k-point  48 :   0.2941 0.1176 0.0000  plane waves:    6988
 k-point  49 :  -0.1176 0.4118 0.0000  plane waves:    6988
 k-point  50 :  -0.4118 0.2941 0.0000  plane waves:    6988
 k-point  51 :   0.3529 0.1176 0.0000  plane waves:    6969
 k-point  52 :  -0.1176 0.4706 0.0000  plane waves:    6969
 k-point  53 :  -0.4706 0.3529 0.0000  plane waves:    6969
 k-point  54 :   0.4118 0.1176 0.0000  plane waves:    6963
 k-point  55 :  -0.1176-0.4706 0.0000  plane waves:    6963
 k-point  56 :   0.4706 0.4118 0.0000  plane waves:    6963
 k-point  57 :   0.1765 0.1765 0.0000  plane waves:    7001
 k-point  58 :  -0.1765 0.3529 0.0000  plane waves:    7001
 k-point  59 :   0.2353 0.1765 0.0000  plane waves:    6986
 k-point  60 :  -0.1765 0.4118 0.0000  plane waves:    6986
[...]
 k-point  67 :   0.4706 0.3529 0.0000  plane waves:    6965
 k-point  68 :   0.4118 0.1765 0.0000  plane waves:    6944
 k-point  69 :   0.4118 0.4118 0.0000  plane waves:    6944
 k-point  70 :   0.2353 0.2353 0.0000  plane waves:    6967
 k-point  71 :  -0.2353 0.4706 0.0000  plane waves:    6967
 k-point  72 :   0.2941 0.2353 0.0000  plane waves:    6965
 k-point  73 :  -0.2353-0.4706 0.0000  plane waves:    6965
 k-point  74 :   0.4706 0.2941 0.0000  plane waves:    6965
 k-point  75 :   0.3529 0.2353 0.0000  plane waves:    6953
 k-point  76 :  -0.2353-0.4118 0.0000  plane waves:    6953
 k-point  77 :   0.4118 0.3529 0.0000  plane waves:    6953
 k-point  78 :   0.2941 0.2941 0.0000  plane waves:    6941
 k-point  79 :  -0.2941-0.4118 0.0000  plane waves:    6941
 k-point  80 :   0.3529 0.2941 0.0000  plane waves:    6940
 k-point  81 :   0.3529 0.3529 0.0000  plane waves:    6940

 maximum and minimum number of plane-waves per node :      7011     6940

 maximum number of plane-waves:      7011
 maximum index in each direction:
   IXMAX=    9   IYMAX=    9   IZMAX=   25
   IXMIN=   -9   IYMIN=   -9   IZMIN=  -25

 serial   3D FFT for wavefunctions
 parallel 3D FFT for charge:
    minimum data exchange during FFTs selected (reduces bandwidth)

 Broyden mixing: mesh for mixing (old mesh)
   NGX = 17   NGY = 17   NGZ = 51
  (NGX  = 72   NGY  = 72   NGZ  =216)
  gives a total of  14739 points

 initial charge density was supplied:
 charge density of overlapping atoms calculated
 number of electron      56.0000000 magnetization
 keeping initial charge density in first step

 Maximum index for augmentation-charges          383 (set IRDMAX)

 First call to EWALD:  gamma=   0.259
 Maximum number of real-space cells 4x 4x 2
 Maximum number of reciprocal cells 2x 2x 5

--------------------------------------- Iteration      1(   1)  ---------------------------------------

 eigenvalue-minimisations  :  7776
 total energy-change (2. order) : 0.1844987E+03  (-0.2543562E+04)
 number of electron      56.0000000 magnetization
 augmentation part       56.0000000 magnetization

 Free energy of the ion-electron system (eV)
  alpha Z        PSCENC =        60.47074313
  Ewald energy   TEWEN  =      4495.95153103
  -Hartree energ DENC   =     -5910.63168057
  -exchange      EXHF   =         0.00000000
  -V(xc)+E(xc)   XCENC  =       161.30414655
  PAW double counting   =      1216.17529508    -1213.88798198
  entropy T*S    EENTRO =        -0.02014704
  eigenvalues    EBANDS =      -371.36879442
  atomic energy  EATOM  =      1746.50554237
  Solvation  Ediel_sol  =         0.00000000
  free energy    TOTEN  =       184.49865414 eV

  energy without entropy =      184.51880118  energy(sigma->0) =      184.50872766

[...]

 eigenvalue-minimisations  : 12000
 total energy-change (2. order) :-0.3086231E+03  (-0.3079953E+03)
 number of electron      56.0000000 magnetization
 augmentation part       56.0000000 magnetization

[...]

 Broyden mixing:
  rms(total) = 0.15771E+01    rms(broyden)= 0.15769E+01
  rms(prec ) = 0.18012E+01
  weight for this iteration     100.00

[...]

 eigenvalues of (default mixing * dielectric matrix)
  average eigenvalue GAMMA=   2.2259
  2.2259

[...]

 eigenvalue-minimisations  : 13344
 total energy-change (2. order) : 0.5090730E-02  (-0.7495936E-03)
 number of electron      55.9999991 magnetization
 augmentation part        0.7156222 magnetization

[...]

 Broyden mixing:
  rms(total) = 0.19113E-04    rms(broyden)= 0.19112E-04
  rms(prec ) = 0.30724E-04
  weight for this iteration     100.00

 eigenvalues of (default mixing * dielectric matrix)
  average eigenvalue GAMMA=   2.3874
  8.2523  4.7675  2.9984  2.6263  2.5496  2.1990  1.8861  1.6612  1.4400  0.9963
  0.9963  0.9899  1.0303  1.0303

[...]

--------------------------------------- Iteration      1(  20)  ---------------------------------------

 eigenvalue-minimisations  : 10224
 total energy-change (2. order) :-0.6471782E-06  (-0.5932347E-08)
 number of electron      55.9999991 magnetization
 augmentation part        0.7149581 magnetization

 Free energy of the ion-electron system (eV)
  alpha Z        PSCENC =        60.47074313
  Ewald energy   TEWEN  =      4495.95153103
  -Hartree energ DENC   =     -6105.97149010
  -exchange      EXHF   =         0.00000000
  -V(xc)+E(xc)   XCENC  =       168.42622417
  PAW double counting   =      5765.87590871    -5765.23948321
  entropy T*S    EENTRO =        -0.00349882
  eigenvalues    EBANDS =      -490.07310755
  atomic energy  EATOM  =      1746.50554237
  Solvation  Ediel_sol  =         0.00000000
  free energy    TOTEN  =      -124.05763027 eV

  energy without entropy =     -124.05413145  energy(sigma->0) =     -124.05588086

 average (electrostatic) potential at core
  the test charge radii are     0.7672  0.6991
  (the norm of the test charge is              1.0000)
       1 -33.1605       2 -33.1606       3 -33.1606       4 -33.1605       5 -33.1606
       6 -33.1605       7 -34.5013       8 -34.5100       9 -55.9647      10 -55.9625
      11 -55.9647      12 -55.9670      13 -55.9665      14 -55.9625      15 -55.9647
      16 -55.9625

 E-fermi :  -0.2660     XC(G=0):  -5.2151     alpha+bet : -5.2469

 Fermi energy:        -0.2659598006

 k-point     1 :       0.0000    0.0000    0.0000
  band No.  band energies     occupation
      1     -19.7682      2.00000
      2     -15.8967      2.00000
      3     -14.6560      2.00000
      4     -14.6514      2.00000
      5     -14.6514      2.00000
      6     -13.5283      2.00000
      7     -13.5283      2.00000
      8     -13.5258      2.00000
      9     -11.7063      2.00000
     10     -11.5210      2.00000
     11     -11.5210      2.00000
     12      -9.3203      2.00000
     13      -9.3203      2.00000
     14      -8.0837      2.00000
     15      -7.3232      2.00000
     16      -6.8059      2.00000
     17      -6.8058      2.00000
     18      -6.8054      2.00000
     19      -6.5479      2.00000
     20      -3.5170      2.00000
     21      -3.5169      2.00000
     22      -2.8550      2.00000
     23      -2.8213      2.00000
     24      -2.8213      2.00000
     25      -1.5296      2.00000
     26      -1.5296      2.00000
     27      -0.3683      1.85212
     28      -0.3683      1.85210
     29      -0.2359      0.67081
     30       0.9497      0.00000
     31       0.9497      0.00000
     32       1.1278      0.00000
     33       1.1278      0.00000
     34       1.1306      0.00000
     35       1.7631      0.00000
     36       1.7631      0.00000
     37       2.9919      0.00000
     38       3.5976      0.00000
     39       4.4958      0.00000
     40       4.8145      0.00000
     41       6.6148      0.00000
     42       6.6177      0.00000
     43       6.6177      0.00000
     44       7.0723      0.00000
     45       7.6622      0.00000
     46       7.6623      0.00000
     47       7.6792      0.00000
     48       8.4055      0.00000

[...]

 k-point    81 :       0.3529    0.3529    0.0000
  band No.  band energies     occupation
      1     -17.9599      2.00000
      2     -17.9560      2.00000
      3     -17.6253      2.00000
      4     -14.7164      2.00000
      5     -14.5306      2.00000
      6     -13.2116      2.00000
      7     -12.7848      2.00000
      8     -12.5351      2.00000
      9     -10.7781      2.00000
     10      -9.1461      2.00000
     11      -8.8441      2.00000
     12      -8.5491      2.00000
     13      -8.0552      2.00000
     14      -8.0537      2.00000
     15      -7.5449      2.00000
     16      -7.4415      2.00000
     17      -7.1038      2.00000
     18      -6.6293      2.00000
     19      -6.6286      2.00000
     20      -5.9938      2.00000
     21      -5.8853      2.00000
     22      -5.5397      2.00000
     23      -4.6940      2.00000
     24      -4.4147      2.00000
     25      -3.9519      2.00000
     26      -3.8258      2.00000
     27      -2.6141      2.00000
     28      -0.7953      2.00000
     29      -0.2456      0.77314
     30       2.5229      0.00000
     31       3.1048      0.00000
     32       3.6922      0.00000
     33       3.8605      0.00000
     34       4.3848      0.00000
     35       4.5885      0.00000
     36       5.1825      0.00000
     37       5.2743      0.00000
     38       5.3649      0.00000
     39       5.7574      0.00000
     40       5.8917      0.00000
     41       5.9158      0.00000
     42       6.0141      0.00000
     43       6.1364      0.00000
     44       6.5111      0.00000
     45       6.8387      0.00000
     46       7.0427      0.00000
     47       7.4782      0.00000
     48       7.8337      0.00000

 soft charge-density along one line, spin component           1
         0         1         2         3         4         5         6         7         8         9
 total charge-density along one line

------------------------ aborting loop because EDIFF is reached ----------------------------------------

         DFTD3 V3.0 Rev 1
 IVDW         = 12
 DF pbe
 parameters
 VDW_S6       =    1.0000
 VDW_S8       =    0.7875
 VDW_A1       =    0.4289
 VDW_A2       =    4.4407
 k1-k3        =   16.0000    1.3333   -4.0000
 VDW_RADIUS   =   50.2022 A
 VDW_CNRADIUS =   21.1671 A
 Edisp (eV)   -1.86926

 E6    (eV) :    -1.2706
 E8    (eV) :    -0.5986
 % E8        : 32.02

  FORCE on cell =-STRESS in cart. coord.  units (eV):
  Direction    XX          YY          ZZ          XY          YZ          ZX
  Alpha Z    60.47074    60.47074    60.47074
  Ewald    6159.79023  6159.79504 -7823.63738     0.00000     0.00000    -0.00008
  Hartree  6045.17615  6045.17676 -5984.38162    -0.00000    -0.00000    -0.00001
  E(xc)    -195.83987  -195.83985  -202.25408     0.00000     0.00000     0.00000
  Local  -12754.90901-12754.91360 13138.38245     0.00001    -0.00000     0.00007
  n-local   -38.09489   -38.09486   -39.09750    -0.19111     0.00896     0.00000
  augment    -2.75884    -2.75877    -2.47065    -0.00000     0.00000    -0.00000
  Kinetic   727.17537   727.17459   854.04489    -0.77829    -0.08037    -0.00000
  Fock        0.00000     0.00000     0.00000     0.00000     0.00000     0.00000
  vdW        -1.34155    -1.34155    -1.33820    -0.00000     0.00000    -0.00000
  Total      -0.33166    -0.33151    -0.28134     0.00000     0.00000    -0.00002
  in kB      -1.65003    -1.64929    -1.39971     0.00000     0.00000    -0.00010

 VOLUME and BASIS-vectors are now :
  energy-cutoff  :      450.00
  volume of cell :      322.04
      direct lattice vectors                 reciprocal lattice vectors
     4.311940485  2.489500000  0.000000000     0.115957074  0.200843543  0.000000000
    -4.311940485  2.489500000  0.000000000    -0.115957074  0.200843543  0.000000000
     0.000000000  0.000000000 15.000000000     0.000000000  0.000000000  0.066666667

  length of vectors
     4.979000000  4.979000000 15.000000000     0.231914147  0.231914147  0.066666667

 FORCES acting on ions
    electron-ion (+dipol)            ewald-force                    non-local-force                 convergence-correction
   -.259E+02 -.149E+02 0.216E+03   0.288E+02 0.166E+02 -.216E+03   -.291E+01 -.169E+01 -.247E-01   0.140E-04 0.135E-04 0.812E-04
   0.258E+02 0.150E+02 0.216E+03   -.287E+02 -.166E+02 -.216E+03   0.292E+01 0.168E+01 -.246E-01   -.189E-04 -.494E-05 0.812E-04
   -.259E+02 0.149E+02 0.216E+03   0.288E+02 -.166E+02 -.216E+03   -.291E+01 0.169E+01 -.247E-01   0.140E-04 -.135E-04 0.812E-04
   0.258E+02 -.150E+02 0.216E+03   -.287E+02 0.166E+02 -.216E+03   0.292E+01 -.168E+01 -.246E-01   -.189E-04 0.494E-05 0.812E-04
   0.401E-01 0.299E+02 0.216E+03   -.365E-01 -.332E+02 -.216E+03   -.383E-02 0.337E+01 -.247E-01   0.487E-05 -.184E-04 0.813E-04
   0.401E-01 -.299E+02 0.216E+03   -.365E-01 0.332E+02 -.216E+03   -.383E-02 -.337E+01 -.247E-01   0.487E-05 0.184E-04 0.813E-04
   -.191E-03 -.127E-04 0.254E+03   0.206E-03 0.308E-03 -.255E+03   0.330E-04 -.124E-18 0.122E+01   -.475E-06 0.180E-08 0.704E-04
   0.187E-03 -.127E-04 0.178E+03   -.206E-03 0.308E-03 -.177E+03   -.336E-04 -.287E-18 -.125E+01   0.523E-06 0.181E-08 0.947E-04
   -.663E+00 0.115E+01 -.216E+03   0.671E+00 -.116E+01 0.216E+03   -.786E-02 0.137E-01 0.257E-01   0.181E-05 -.301E-05 0.194E-03
   0.368E+00 0.636E+00 -.215E+03   -.371E+00 -.642E+00 0.215E+03   0.324E-02 0.570E-02 0.441E-01   -.407E-05 -.689E-05 0.196E-03
   0.132E+01 0.493E-04 -.216E+03   -.134E+01 -.328E-05 0.216E+03   0.159E-01 -.172E-17 0.257E-01   -.352E-05 -.201E-09 0.194E-03
   0.405E-03 0.493E-04 -.218E+03   -.498E-03 0.354E-05 0.218E+03   -.511E-04 -.447E-17 -.587E-02   0.803E-07 0.211E-09 0.192E-03
   -.407E-03 0.492E-04 -.216E+03   0.500E-03 0.355E-05 0.216E+03   0.512E-04 -.134E-17 0.181E-01   -.688E-07 0.209E-09 0.199E-03
   -.734E+00 0.494E-04 -.215E+03   0.741E+00 -.329E-05 0.215E+03   -.664E-02 -.464E-17 0.441E-01   0.805E-05 -.206E-09 0.196E-03
   -.663E+00 -.115E+01 -.216E+03   0.671E+00 0.116E+01 0.216E+03   -.786E-02 -.137E-01 0.257E-01   0.182E-05 0.301E-05 0.194E-03
   0.368E+00 -.636E+00 -.215E+03   -.371E+00 0.642E+00 0.215E+03   0.324E-02 -.570E-02 0.441E-01   -.407E-05 0.689E-05 0.196E-03
   0.107E-05 0.761E-03 -.511E-01   -.160E-13 -.103E-13 0.171E-12   -.633E-06 -.781E-17 0.485E-01   0.944E-07 0.323E-08 0.221E-02

 POSITION                                       TOTAL-FORCE (eV/Angst)
      2.88252      1.66438      1.52236        -0.001959     -0.001388      0.000141
      1.42928      0.82535      1.52236         0.002195      0.000987      0.000143
      2.88253      3.31461      1.52236        -0.001959      0.001388      0.000141
      1.42928      4.15365      1.52236         0.002195     -0.000987      0.000143
      0.00014      1.65047      1.52236        -0.000233      0.002375      0.000141
      0.00014      3.32853      1.52236        -0.000233     -0.002375      0.000141
      1.43731      2.48950      1.32683         0.000047     -0.000000     -0.009060
     -1.43731      2.48950      1.71636        -0.000052     -0.000000     -0.001576
     -0.71860      1.24465      5.01853         0.000400     -0.000445      0.001044
      0.71865      1.24474      5.01699         0.000398      0.000939      0.001091
     -2.87474      2.48950      5.01853        -0.000370     -0.000000      0.001044
     -1.43731      2.48950      5.01939        -0.000144     -0.000000      0.001871
      1.43731      2.48950      5.01667         0.000144     -0.000000      0.001508
      2.87464      2.48950      5.01699        -0.001229     -0.000000      0.001091
     -0.71860      3.73434      5.01853         0.000400      0.000445      0.001044
      0.71865      3.73426      5.01699         0.000398     -0.000939      0.001091
    total drift:                                0.000001      0.000761     -0.000448

  FREE ENERGIE OF THE ION-ELECTRON SYSTEM (eV)
  free  energy   TOTEN  =      -125.92689250 eV

  energy  without entropy=     -125.92339369  energy(sigma->0) =     -125.92514309

 stress matrix after NEB project (eV)
     -0.33166      0.00000     -0.00002
      0.00000     -0.33151      0.00000
     -0.00002      0.00000     -0.28134
  FORCES: max atom, RMS     0.009060    0.002919
  FORCE total and by dimension    0.011675    0.009060
  Stress total and by dimension    0.546851    0.331657
 writing wavefunctions