 vasp.6.3.2 27Jun22 (build Dec 22 2022 13:13:19) complex

 executed on             LinuxIFC date 2023.11.03  13:48:32

 INCAR:
   SYSTEM = SC
   ISTART = 0
   ICHARG = 2
   PREC = Accurate
   ENCUT = 450
   LCHARG = .TRUE.
   LWAVE = .TRUE.
   ALGO = Normal
   NELM = 64
   EDIFF = 1E-6
   EDIFFG = -1E-3
   SIGMA = 0.1
   ISMEAR = 0
   SYMPREC = 1E-6
   IBRION = -1
   GGA = PE
   IVDW = 12

 POTCAR:    PAW_PBE B 06Sep2000
 POTCAR:    PAW_PBE C 08Apr2002
 POTCAR:    PAW_PBE B 06Sep2000
   VRHFIN =B: s2p1

   TITEL  = PAW_PBE B 06Sep2000
   POMASS =   10.811; ZVAL   =    3.000    mass and valenz
   ENMAX  =  318.614; ENMIN  =  238.960 eV

   TITEL  = PAW_PBE C 08Apr2002
   POMASS =   12.011; ZVAL   =    4.000    mass and valenz
   ENMAX  =  400.000; ENMIN  =  300.000 eV

  PAW_PBE B 06Sep2000                   :
  PAW_PBE C 08Apr2002                   :

 POSCAR: B4C3 with lattice parameter 4.690
  positions in direct lattice
  velocities in cartesian coordinates
 exchange correlation table for  LEXCH =        8
   RHO(1)=    0.500       N(1)  =     2000
   RHO(2)=  100.500       N(2)  =     4000

 VTST: version 4.2, (08/11/21)

 CHAIN: initializing optimizer

 OPT: Using VASP Dynamics algorithm
 CHAIN: Read ICHAIN            0

 POSCAR: B4C3 with lattice parameter 4.690
  positions in direct lattice
  velocities in cartesian coordinates

 ion  position               nearest neighbor table
   1  0.004  0.003  0.120-   7 1.55   6 1.55   5 1.55   4 1.69   2 1.69   3 1.69
   2  0.357  0.003  0.098-   6 1.52   5 1.59   7 1.59   1 1.69
   3  0.004  0.356  0.098-   7 1.52   5 1.59   6 1.59   1 1.69
   4  0.651  0.650  0.098-   5 1.52   6 1.59   7 1.59   1 1.69
   5  0.328  0.327  0.100-   4 1.52   1 1.55   3 1.59   2 1.59
   6  0.680  0.003  0.100-   2 1.52   1 1.55   3 1.59   4 1.59
   7  0.004  0.679  0.100-   3 1.52   1 1.55   2 1.59   4 1.59

  LATTYP: Found a hexagonal cell.
 ALAT       =     4.6899998755
 C/A-ratio  =     3.1982943280

  Lattice vectors:

 A1 = (   4.0616590000,   2.3450000000,   0.0000000000)
 A2 = (  -4.0616590000,   2.3450000000,   0.0000000000)
 A3 = (   0.0000000000,   0.0000000000,  15.0000000000)

Analysis of symmetry for initial positions (statically):
 Subroutine PRICEL returns:
 Original cell was already a primitive cell.

 Routine SETGRP: Setting up the symmetry group for a
 hexagonal supercell.

 Subroutine GETGRP returns: Found  1 space group operations
 (whereof  1 operations were pure point group operations)
 out of a pool of 24 trial point group operations.

The static configuration has the point symmetry C_1 .

Analysis of symmetry for dynamics (positions and initial velocities):
 Subroutine PRICEL returns:
 Original cell was already a primitive cell.

 Routine SETGRP: Setting up the symmetry group for a
 hexagonal supercell.

 Subroutine GETGRP returns: Found  1 space group operations
 (whereof  1 operations were pure point group operations)
 out of a pool of 24 trial point group operations.

The dynamic configuration has the point symmetry C_1 .

 Subroutine INISYM returns: Found  1 space group operations
 (whereof  1 operations are pure point group operations),
 and found     1 'primitive' translations

                                     Primitive cell

  volume of cell :     285.7377

  direct lattice vectors                    reciprocal lattice vectors
     4.061659000  2.345000000  0.000000000     0.123102407  0.213219616  0.000000000
    -4.061659000  2.345000000  0.000000000    -0.123102407  0.213219616  0.000000000
     0.000000000  0.000000000 15.000000000     0.000000000  0.000000000  0.066666667

  length of vectors
     4.689999876  4.689999876 15.000000000     0.246204808  0.246204808  0.066666667

  position of ions in fractional coordinates (direct lattice)
     0.004183931  0.002770402  0.120265168
     0.356955219  0.002781990  0.097503442
     0.004186971  0.355542049  0.097502993
     0.651416230  0.650011713  0.097505455
     0.328100716  0.326694043  0.100282726
     0.680268274  0.002781113  0.100292166
     0.004186659  0.678856689  0.100294050

  ion indices of the primitive-cell ions
   primitive index   ion index
                 1           1
                 2           2
                 3           3
                 4           4
                 5           5
                 6           6
                 7           7

 KPOINTS: k-points

Automatic generation of k-mesh.
 Grid dimensions read from file:
 generate k-points for:   17   17    1

 Generating k-lattice:

  Cartesian coordinates                     Fractional coordinates (reciprocal lattice)
     0.007241318  0.012542330  0.000000000     0.058823529 -0.000000000  0.000000000
    -0.007241318  0.012542330  0.000000000    -0.000000000  0.058823529  0.000000000
     0.000000000  0.000000000  0.066666667     0.000000000  0.000000000  1.000000000

  Length of vectors
     0.014482636  0.014482636  0.066666667

  Shift w.r.t. Gamma in fractional coordinates (k-lattice)
     0.000000000  0.000000000  0.000000000

 Subroutine IBZKPT returns following result:

 Found    145 irreducible k-points:

 Following reciprocal coordinates:
            Coordinates               Weight
  0.000000  0.000000  0.000000      1.000000
  0.058824  0.000000  0.000000      2.000000
  0.000000  0.058824  0.000000      2.000000
 -0.058824  0.058824  0.000000      2.000000
  0.117647 -0.000000  0.000000      2.000000
 -0.000000  0.117647  0.000000      2.000000
 -0.117647  0.117647  0.000000      2.000000
  0.176471 -0.000000  0.000000      2.000000
 -0.000000  0.176471  0.000000      2.000000
 -0.176471  0.176471  0.000000      2.000000
  0.235294 -0.000000  0.000000      2.000000
 -0.000000  0.235294  0.000000      2.000000
 -0.235294  0.235294  0.000000      2.000000
  0.294118  0.000000  0.000000      2.000000
  0.000000  0.294118  0.000000      2.000000
 -0.294118  0.294118  0.000000      2.000000
  0.352941  0.000000  0.000000      2.000000
  0.000000  0.352941  0.000000      2.000000
 -0.352941  0.352941  0.000000      2.000000
  0.411765 -0.000000  0.000000      2.000000
 -0.000000  0.411765  0.000000      2.000000
 -0.411765  0.411765  0.000000      2.000000
  0.470588 -0.000000  0.000000      2.000000
 -0.000000  0.470588  0.000000      2.000000
 -0.470588  0.470588  0.000000      2.000000
  0.058824  0.058824  0.000000      2.000000
 -0.058824  0.117647  0.000000      2.000000
 -0.117647  0.058824  0.000000      2.000000
  0.117647  0.058824  0.000000      2.000000
 -0.058824  0.176471  0.000000      2.000000
 -0.176471  0.117647  0.000000      2.000000
 -0.117647  0.176471  0.000000      2.000000
  0.058824  0.117647  0.000000      2.000000
  0.176471 -0.058824  0.000000      2.000000
  0.176471  0.058824  0.000000      2.000000
 -0.058824  0.235294  0.000000      2.000000
 -0.235294  0.176471  0.000000      2.000000
 -0.176471  0.235294  0.000000      2.000000
  0.058824  0.176471  0.000000      2.000000
  0.235294 -0.058824  0.000000      2.000000
  0.235294  0.058824  0.000000      2.000000
 -0.058824  0.294118  0.000000      2.000000
 -0.294118  0.235294  0.000000      2.000000
 -0.235294  0.294118  0.000000      2.000000
  0.058824  0.235294  0.000000      2.000000
  0.294118 -0.058824  0.000000      2.000000
  0.294118  0.058824  0.000000      2.000000
 -0.058824  0.352941  0.000000      2.000000
 -0.352941  0.294118  0.000000      2.000000
 -0.294118  0.352941  0.000000      2.000000
  0.058824  0.294118  0.000000      2.000000
  0.352941 -0.058824  0.000000      2.000000
  0.352941  0.058824  0.000000      2.000000
 -0.058824  0.411765  0.000000      2.000000
 -0.411765  0.352941  0.000000      2.000000
 -0.352941  0.411765  0.000000      2.000000
  0.058824  0.352941  0.000000      2.000000
  0.411765 -0.058824  0.000000      2.000000
  0.411765  0.058824  0.000000      2.000000
 -0.058824  0.470588  0.000000      2.000000
[...]
 -0.294118 -0.470588  0.000000      2.000000
  0.235294  0.294118  0.000000      2.000000
 -0.470588 -0.235294  0.000000      2.000000
  0.352941  0.235294  0.000000      2.000000
 -0.235294 -0.411765  0.000000      2.000000
  0.411765  0.352941  0.000000      2.000000
 -0.352941 -0.411765  0.000000      2.000000
  0.235294  0.352941  0.000000      2.000000
 -0.411765 -0.235294  0.000000      2.000000
  0.294118  0.294118  0.000000      2.000000
 -0.294118 -0.411765  0.000000      2.000000
  0.411765  0.294118  0.000000      2.000000
  0.352941  0.294118  0.000000      2.000000
 -0.294118 -0.352941  0.000000      2.000000
  0.352941  0.352941  0.000000      2.000000

 Following cartesian coordinates:
            Coordinates               Weight
  0.000000  0.000000  0.000000      1.000000
  0.007241  0.012542  0.000000      2.000000
 -0.007241  0.012542  0.000000      2.000000
 -0.014483  0.000000  0.000000      2.000000
  0.014483  0.025085  0.000000      2.000000
 -0.014483  0.025085  0.000000      2.000000
 -0.028965 -0.000000  0.000000      2.000000
  0.021724  0.037627  0.000000      2.000000
 -0.021724  0.037627  0.000000      2.000000
 -0.043448  0.000000  0.000000      2.000000
  0.028965  0.050169  0.000000      2.000000
 -0.028965  0.050169  0.000000      2.000000
 -0.057931 -0.000000  0.000000      2.000000
  0.036207  0.062712  0.000000      2.000000
 -0.036207  0.062712  0.000000      2.000000
 -0.072413  0.000000  0.000000      2.000000
  0.043448  0.075254  0.000000      2.000000
 -0.043448  0.075254  0.000000      2.000000
 -0.086896  0.000000  0.000000      2.000000
  0.050689  0.087796  0.000000      2.000000
 -0.050689  0.087796  0.000000      2.000000
 -0.101378  0.000000  0.000000      2.000000
  0.057931  0.100339  0.000000      2.000000
 -0.057931  0.100339  0.000000      2.000000
 -0.115861 -0.000000  0.000000      2.000000
  0.000000  0.025085  0.000000      2.000000
 -0.021724  0.012542  0.000000      2.000000
 -0.021724 -0.012542  0.000000      2.000000
  0.007241  0.037627  0.000000      2.000000
 -0.028965  0.025085  0.000000      2.000000
 -0.036207 -0.012542  0.000000      2.000000
 -0.036207  0.012542  0.000000      2.000000
 -0.007241  0.037627  0.000000      2.000000
  0.028965  0.025085  0.000000      2.000000
  0.014483  0.050169  0.000000      2.000000
 -0.036207  0.037627  0.000000      2.000000
 -0.050689 -0.012542  0.000000      2.000000
 -0.050689  0.012542  0.000000      2.000000
 -0.014483  0.050169  0.000000      2.000000
  0.036207  0.037627  0.000000      2.000000
  0.021724  0.062712  0.000000      2.000000
 -0.043448  0.050169  0.000000      2.000000
 -0.065172 -0.012542  0.000000      2.000000
 -0.065172  0.012542  0.000000      2.000000
 -0.021724  0.062712  0.000000      2.000000
  0.043448  0.050169  0.000000      2.000000
  0.028965  0.075254  0.000000      2.000000
 -0.050689  0.062712  0.000000      2.000000
 -0.079654 -0.012542  0.000000      2.000000
 -0.079654  0.012542  0.000000      2.000000
 -0.028965  0.075254  0.000000      2.000000
  0.050689  0.062712  0.000000      2.000000
  0.036207  0.087796  0.000000      2.000000
 -0.057931  0.075254  0.000000      2.000000
 -0.094137 -0.012542  0.000000      2.000000
 -0.094137  0.012542  0.000000      2.000000
[...]
 k-point   3 :   0.0000 0.0588 0.0000  plane waves:    6162
 k-point   4 :  -0.0588 0.0588 0.0000  plane waves:    6162
 k-point   5 :   0.1176-0.0000 0.0000  plane waves:    6172
 k-point   6 :  -0.0000 0.1176 0.0000  plane waves:    6172
 k-point   7 :  -0.1176 0.1176 0.0000  plane waves:    6172
 k-point   8 :   0.1765-0.0000 0.0000  plane waves:    6152
 k-point   9 :  -0.0000 0.1765 0.0000  plane waves:    6152
 k-point  10 :  -0.1765 0.1765 0.0000  plane waves:    6152
 k-point  11 :   0.2353-0.0000 0.0000  plane waves:    6184
 k-point  12 :  -0.0000 0.2353 0.0000  plane waves:    6184
 k-point  13 :  -0.2353 0.2353 0.0000  plane waves:    6184
 k-point  14 :   0.2941 0.0000 0.0000  plane waves:    6208
 k-point  15 :   0.0000 0.2941 0.0000  plane waves:    6208
 k-point  16 :  -0.2941 0.2941 0.0000  plane waves:    6208
 k-point  17 :   0.3529 0.0000 0.0000  plane waves:    6214
 k-point  18 :   0.0000 0.3529 0.0000  plane waves:    6214
 k-point  19 :  -0.3529 0.3529 0.0000  plane waves:    6214
 k-point  20 :   0.4118-0.0000 0.0000  plane waves:    6226
 k-point  21 :  -0.0000 0.4118 0.0000  plane waves:    6226
 k-point  22 :  -0.4118 0.4118 0.0000  plane waves:    6226
 k-point  23 :   0.4706-0.0000 0.0000  plane waves:    6200
 k-point  24 :  -0.0000 0.4706 0.0000  plane waves:    6200
 k-point  25 :  -0.4706 0.4706 0.0000  plane waves:    6200
 k-point  26 :   0.0588 0.0588 0.0000  plane waves:    6172
 k-point  27 :  -0.0588 0.1176 0.0000  plane waves:    6172
 k-point  28 :  -0.1176 0.0588 0.0000  plane waves:    6172
 k-point  29 :   0.1176 0.0588 0.0000  plane waves:    6154
 k-point  30 :  -0.0588 0.1765 0.0000  plane waves:    6154
 k-point  31 :  -0.1765 0.1176 0.0000  plane waves:    6154
 k-point  32 :  -0.1176 0.1765 0.0000  plane waves:    6154
 k-point  33 :   0.0588 0.1176 0.0000  plane waves:    6154
 k-point  34 :   0.1765-0.0588 0.0000  plane waves:    6154
 k-point  35 :   0.1765 0.0588 0.0000  plane waves:    6169
 k-point  36 :  -0.0588 0.2353 0.0000  plane waves:    6169
 k-point  37 :  -0.2353 0.1765 0.0000  plane waves:    6169
 k-point  38 :  -0.1765 0.2353 0.0000  plane waves:    6169
 k-point  39 :   0.0588 0.1765 0.0000  plane waves:    6169
 k-point  40 :   0.2353-0.0588 0.0000  plane waves:    6169
 k-point  41 :   0.2353 0.0588 0.0000  plane waves:    6194
 k-point  42 :  -0.0588 0.2941 0.0000  plane waves:    6194
 k-point  43 :  -0.2941 0.2353 0.0000  plane waves:    6194
 k-point  44 :  -0.2353 0.2941 0.0000  plane waves:    6194
 k-point  45 :   0.0588 0.2353 0.0000  plane waves:    6194
 k-point  46 :   0.2941-0.0588 0.0000  plane waves:    6194
 k-point  47 :   0.2941 0.0588 0.0000  plane waves:    6198
 k-point  48 :  -0.0588 0.3529 0.0000  plane waves:    6198
 k-point  49 :  -0.3529 0.2941 0.0000  plane waves:    6198
 k-point  50 :  -0.2941 0.3529 0.0000  plane waves:    6198
 k-point  51 :   0.0588 0.2941 0.0000  plane waves:    6198
 k-point  52 :   0.3529-0.0588 0.0000  plane waves:    6198
 k-point  53 :   0.3529 0.0588 0.0000  plane waves:    6209
 k-point  54 :  -0.0588 0.4118 0.0000  plane waves:    6209
 k-point  55 :  -0.4118 0.3529 0.0000  plane waves:    6209
 k-point  56 :  -0.3529 0.4118 0.0000  plane waves:    6209
 k-point  57 :   0.0588 0.3529 0.0000  plane waves:    6209
 k-point  58 :   0.4118-0.0588 0.0000  plane waves:    6209
 k-point  59 :   0.4118 0.0588 0.0000  plane waves:    6204
 k-point  60 :  -0.0588 0.4706 0.0000  plane waves:    6204
[...]
 k-point 131 :  -0.2941-0.4706 0.0000  plane waves:    6199
 k-point 132 :   0.2353 0.2941 0.0000  plane waves:    6199
 k-point 133 :  -0.4706-0.2353 0.0000  plane waves:    6199
 k-point 134 :   0.3529 0.2353 0.0000  plane waves:    6198
 k-point 135 :  -0.2353-0.4118 0.0000  plane waves:    6198
 k-point 136 :   0.4118 0.3529 0.0000  plane waves:    6198
 k-point 137 :  -0.3529-0.4118 0.0000  plane waves:    6198
 k-point 138 :   0.2353 0.3529 0.0000  plane waves:    6198
 k-point 139 :  -0.4118-0.2353 0.0000  plane waves:    6198
 k-point 140 :   0.2941 0.2941 0.0000  plane waves:    6190
 k-point 141 :  -0.2941-0.4118 0.0000  plane waves:    6190
 k-point 142 :   0.4118 0.2941 0.0000  plane waves:    6190
 k-point 143 :   0.3529 0.2941 0.0000  plane waves:    6188
 k-point 144 :  -0.2941-0.3529 0.0000  plane waves:    6188
 k-point 145 :   0.3529 0.3529 0.0000  plane waves:    6188

 maximum and minimum number of plane-waves per node :      6226     6152

 maximum number of plane-waves:      6226
 maximum index in each direction:
   IXMAX=    8   IYMAX=    8   IZMAX=   25
   IXMIN=   -8   IYMIN=   -8   IZMIN=  -25

 serial   3D FFT for wavefunctions
 parallel 3D FFT for charge:
    minimum data exchange during FFTs selected (reduces bandwidth)

 Broyden mixing: mesh for mixing (old mesh)
   NGX = 17   NGY = 17   NGZ = 51
  (NGX  = 64   NGY  = 64   NGZ  =216)
  gives a total of  14739 points

 initial charge density was supplied:
 charge density of overlapping atoms calculated
 number of electron      24.0000000 magnetization
 keeping initial charge density in first step

 Maximum index for augmentation-charges          368 (set IRDMAX)

 First call to EWALD:  gamma=   0.269
 Maximum number of real-space cells 4x 4x 1
 Maximum number of reciprocal cells 2x 2x 6

--------------------------------------- Iteration      1(   1)  ---------------------------------------

 eigenvalue-minimisations  : 13920
 total energy-change (2. order) : 0.4540747E+02  (-0.1007948E+04)
 number of electron      24.0000000 magnetization
 augmentation part       24.0000000 magnetization

 Free energy of the ion-electron system (eV)
  alpha Z        PSCENC =        12.87923804
  Ewald energy   TEWEN  =      2035.29425873
  -Hartree energ DENC   =     -2541.03626715
  -exchange      EXHF   =         0.00000000
  -V(xc)+E(xc)   XCENC  =        66.94270959
  PAW double counting   =       499.56560116     -497.85253880
  entropy T*S    EENTRO =        -0.00837371
  eigenvalues    EBANDS =      -256.48555554
  atomic energy  EATOM  =       726.10839270
  Solvation  Ediel_sol  =         0.00000000
  free energy    TOTEN  =        45.40746502 eV

  energy without entropy =       45.41583873  energy(sigma->0) =       45.41165188

[...]

 eigenvalue-minimisations  : 20064
 total energy-change (2. order) :-0.1016825E+03  (-0.1010243E+03)
 number of electron      24.0000000 magnetization
 augmentation part       24.0000000 magnetization

[...]

 Broyden mixing:
  rms(total) = 0.11779E+01    rms(broyden)= 0.11777E+01
  rms(prec ) = 0.13791E+01
  weight for this iteration     100.00

[...]

 eigenvalues of (default mixing * dielectric matrix)
  average eigenvalue GAMMA=   1.3302
  1.3302

[...]

 eigenvalue-minimisations  : 19872
 total energy-change (2. order) : 0.1770169E-02  (-0.1192806E-03)
 number of electron      24.0000000 magnetization
 augmentation part        0.2526685 magnetization

[...]

 Broyden mixing:
  rms(total) = 0.10508E-04    rms(broyden)= 0.10507E-04
  rms(prec ) = 0.13517E-04
  weight for this iteration     100.00

 eigenvalues of (default mixing * dielectric matrix)
  average eigenvalue GAMMA=   2.6380
  9.5003  5.8782  3.7918  2.8607  2.4763  1.9610  1.9610  1.5960  1.5960  1.1807
  1.1308  1.0032  1.0032  0.9926

[...]

--------------------------------------- Iteration      1(  20)  ---------------------------------------

 eigenvalue-minimisations  : 20016
 total energy-change (2. order) :-0.4207986E-06  (-0.6821339E-09)
 number of electron      24.0000000 magnetization
 augmentation part        0.2525918 magnetization

 Free energy of the ion-electron system (eV)
  alpha Z        PSCENC =        12.87923804
  Ewald energy   TEWEN  =      2035.29425873
  -Hartree energ DENC   =     -2651.55178466
  -exchange      EXHF   =         0.00000000
  -V(xc)+E(xc)   XCENC  =        70.47677666
  PAW double counting   =      2428.96269052    -2427.95091124
  entropy T*S    EENTRO =        -0.00000000
  eigenvalues    EBANDS =      -246.52812985
  atomic energy  EATOM  =       726.10839270
  Solvation  Ediel_sol  =         0.00000000
  free energy    TOTEN  =       -52.30946910 eV

  energy without entropy =      -52.30946910  energy(sigma->0) =      -52.30946910

 average (electrostatic) potential at core
  the test charge radii are     0.7672  0.6991
  (the norm of the test charge is              1.0000)
       1 -37.3506       2 -35.5375       3 -35.5374       4 -35.5376       5 -56.9387
       6 -56.9387       7 -56.9388

 E-fermi :  -2.4280     XC(G=0):  -2.8911     alpha+bet : -2.6060

 Fermi energy:        -2.4280038142

 k-point     1 :       0.0000    0.0000    0.0000
  band No.  band energies     occupation
      1     -19.7368      2.00000
      2     -15.4939      2.00000
      3     -15.4939      2.00000
      4     -12.6059      2.00000
      5     -11.3070      2.00000
      6     -11.3070      2.00000
      7      -9.8594      2.00000
      8      -9.0927      2.00000
      9      -4.5763      2.00000
     10      -4.5760      2.00000
     11      -2.8560      2.00000
     12      -2.8559      2.00000
     13      -0.7395      0.00000
     14      -0.7394      0.00000
     15      -0.5911      0.00000
     16       1.2421      0.00000
     17       1.8103      0.00000
     18       2.4289      0.00000
     19       2.6792      0.00000
     20       2.6793      0.00000
     21       4.2303      0.00000
     22       4.9569      0.00000
     23       7.1406      0.00000
     24       7.2228      0.00000
     25       7.7011      0.00000
     26       8.2619      0.00000
     27       8.2620      0.00000
     28       8.2928      0.00000
     29       8.9364      0.00000
     30       9.2457      0.00000
     31       9.2457      0.00000
     32       9.4211      0.00000
     33       9.4713      0.00000
     34      10.4083      0.00000
     35      10.5974      0.00000
     36      10.5975      0.00000
     37      10.7098      0.00000
     38      10.7098      0.00000
     39      10.8905      0.00000
     40      10.8967      0.00000
     41      10.8968      0.00000
     42      11.0462      0.00000
     43      11.0462      0.00000
     44      11.2168      0.00000
     45      11.5379      0.00000
     46      11.5535      0.00000
     47      11.5536      0.00000
     48      11.6083      0.00000

[...]

 k-point   145 :       0.3529    0.3529    0.0000
  band No.  band energies     occupation
      1     -19.0059      2.00000
      2     -16.8268      2.00000
      3     -16.6428      2.00000
      4     -11.3624      2.00000
      5     -11.0027      2.00000
      6      -9.9778      2.00000
      7      -7.6793      2.00000
      8      -7.6049      2.00000
      9      -7.4698      2.00000
     10      -5.7769      2.00000
     11      -5.6865      2.00000
     12      -5.4191      2.00000
     13       0.5322      0.00000
     14       2.1692      0.00000
     15       2.5902      0.00000
     16       2.7067      0.00000
     17       3.3074      0.00000
     18       3.4713      0.00000
     19       3.5410      0.00000
     20       4.0799      0.00000
     21       4.2407      0.00000
     22       4.6316      0.00000
     23       4.7536      0.00000
     24       5.0077      0.00000
     25       5.2041      0.00000
     26       5.2348      0.00000
     27       5.6227      0.00000
     28       6.1247      0.00000
     29       7.1303      0.00000
     30       7.1340      0.00000
     31       7.6057      0.00000
     32       7.7950      0.00000
     33       7.9756      0.00000
     34       8.3615      0.00000
     35       8.5813      0.00000
     36       9.0518      0.00000
     37      10.4391      0.00000
     38      10.8134      0.00000
     39      10.9051      0.00000
     40      11.2139      0.00000
     41      11.3442      0.00000
     42      11.3620      0.00000
     43      12.0439      0.00000
     44      12.2170      0.00000
     45      12.3986      0.00000
     46      12.4148      0.00000
     47      12.6111      0.00000
     48      12.8047      0.00000

 soft charge-density along one line, spin component           1
         0         1         2         3         4         5         6         7         8         9
 total charge-density along one line

------------------------ aborting loop because EDIFF is reached ----------------------------------------

         DFTD3 V3.0 Rev 1
 IVDW         = 12
 DF pbe
 parameters
 VDW_S6       =    1.0000
 VDW_S8       =    0.7875
 VDW_A1       =    0.4289
 VDW_A2       =    4.4407
 k1-k3        =   16.0000    1.3333   -4.0000
 VDW_RADIUS   =   50.2022 A
 VDW_CNRADIUS =   21.1671 A
 Edisp (eV)   -0.52724

 E6    (eV) :    -0.3479
 E8    (eV) :    -0.1793
 % E8        : 34.01

  FORCE on cell =-STRESS in cart. coord.  units (eV):
  Direction    XX          YY          ZZ          XY          YZ          ZX
  Alpha Z    12.87924    12.87924    12.87924
  Ewald    2711.23721  2711.22565 -3387.16952    -0.00217    -0.00655     0.00082
  Hartree  2613.72337  2613.72086 -2575.89292    -0.00039    -0.00261     0.00049
  E(xc)     -83.07814   -83.07817   -85.84341    -0.00000    -0.00002     0.00000
  Local   -5543.64704 -5543.63465  5698.33734     0.00228     0.00883    -0.00135
  n-local   -14.80286   -14.80306   -15.73544    -0.00002     0.00006     0.00001
  augment    -0.88095    -0.88086    -0.73543    -0.00001    -0.00003    -0.00000
  Kinetic   305.03394   305.03601   354.05189     0.00035     0.00041    -0.00008
  Fock        0.00000     0.00000     0.00000     0.00000     0.00000     0.00000
  vdW        -0.54156    -0.54156    -0.00673     0.00000    -0.00000     0.00000
  Total      -0.07679    -0.07656    -0.11499     0.00004     0.00008    -0.00011
  in kB      -0.43058    -0.42928    -0.64478     0.00021     0.00046    -0.00063

 VOLUME and BASIS-vectors are now :
  energy-cutoff  :      450.00
  volume of cell :      285.74
      direct lattice vectors                 reciprocal lattice vectors
     4.061659000  2.345000000  0.000000000     0.123102407  0.213219616  0.000000000
    -4.061659000  2.345000000  0.000000000    -0.123102407  0.213219616  0.000000000
     0.000000000  0.000000000 15.000000000     0.000000000  0.000000000  0.066666667

  length of vectors
     4.689999876  4.689999876 15.000000000     0.246204808  0.246204808  0.066666667

 FORCES acting on ions
    electron-ion (+dipol)            ewald-force                    non-local-force                 convergence-correction
   0.148E-02 -.368E-02 -.915E+02   -.146E-02 0.384E-02 0.932E+02   -.373E-03 0.167E-03 -.172E+01   -.217E-08 -.358E-07 -.547E-04
   -.207E+02 -.120E+02 0.200E+02   0.236E+02 0.136E+02 -.204E+02   -.281E+01 -.162E+01 0.421E+00   -.901E-05 -.524E-05 -.428E-04
   0.207E+02 -.120E+02 0.200E+02   -.236E+02 0.136E+02 -.204E+02   0.281E+01 -.162E+01 0.421E+00   0.900E-05 -.522E-05 -.428E-04
   -.533E-03 0.240E+02 0.200E+02   0.516E-03 -.272E+02 -.204E+02   0.304E-03 0.324E+01 0.421E+00   0.124E-07 0.105E-04 -.428E-04
   -.300E-03 -.374E+02 0.876E+01   0.107E-03 0.439E+02 -.107E+02   0.302E-03 -.649E+01 0.196E+01   -.224E-07 -.190E-04 -.536E-04
   0.324E+02 0.187E+02 0.871E+01   -.380E+02 -.220E+02 -.107E+02   0.562E+01 0.324E+01 0.196E+01   0.165E-04 0.953E-05 -.536E-04
   -.324E+02 0.187E+02 0.870E+01   0.380E+02 -.220E+02 -.107E+02   -.562E+01 0.324E+01 0.196E+01   -.165E-04 0.949E-05 -.536E-04
   0.187E-03 -.498E-03 -.542E+01   -.142E-13 0.249E-13 -.178E-14   -.262E-03 0.468E-03 0.542E+01   0.287E-09 -.459E-07 -.344E-03

 POSITION                                       TOTAL-FORCE (eV/Angst)
      0.00574      0.01631      1.80398        -0.000340      0.000328     -0.000493
      1.43853      0.84358      1.46255        -0.000095     -0.000513      0.000143
     -1.42708      0.84356      1.46254        -0.000031     -0.000115      0.000167
      0.00570      3.05185      1.46258         0.000298      0.000127     -0.000038
      0.00571      1.53549      1.50424         0.000119      0.000190      0.000484
      2.75172      1.60175      1.50438         0.000438     -0.000130     -0.000054
     -2.74028      1.60174      1.50441        -0.000389      0.000112     -0.000209
    total drift:                               -0.000075     -0.000030     -0.000011

  FREE ENERGIE OF THE ION-ELECTRON SYSTEM (eV)
  free  energy   TOTEN  =       -52.83670489 eV

  energy  without entropy=      -52.83670489  energy(sigma->0) =      -52.83670489

 stress matrix after NEB project (eV)
     -0.07679      0.00004     -0.00011
      0.00004     -0.07656      0.00008
     -0.00011      0.00008     -0.11499
  FORCES: max atom, RMS     0.000683    0.000480
  FORCE total and by dimension    0.001269    0.000513
  Stress total and by dimension    0.158055    0.114992
 writing wavefunctions