 vasp.6.4.2 20Jul23 (build Aug 23 2023 19:13:21) complex

 executed on             LinuxIFC date 2023.11.16  22:15:16

 INCAR:
   SYSTEM = BS_HSE06
   ISTART = 1
   ICHARG = 2
   PREC = Accurate
   LORBIT = 11
   ENCUT = 450
   ALGO = Damped
   TIME = 0.4
   NELM = 200
   EDIFF = 1E-6
   EDIFFG = -1E-3
   SIGMA = 0.1
   ISMEAR = 0
   IBRION = -1
   GGA = PE
   LHFCALC = .TRUE.
   AEXX = 0.25
   HFSCREEN = 0.2
   NKRED = 1

 POTCAR:    PAW_PBE B 06Sep2000
 POTCAR:    PAW_PBE B 06Sep2000
   VRHFIN =B: s2p1

   TITEL  = PAW_PBE B 06Sep2000
   POMASS =   10.811; ZVAL   =    3.000    mass and valenz
   ENMAX  =  318.614; ENMIN  =  238.960 eV

  PAW_PBE B 06Sep2000                   :

 POSCAR: Borophene with lattice parameter 5.051
  positions in direct lattice
  velocities in cartesian coordinates
 exchange correlation table for  LEXCH =        8
   RHO(1)=    0.500       N(1)  =     2000
   RHO(2)=  100.500       N(2)  =     4000

 VTST: version 4.1, (05/19/21)

 CHAIN: initializing optimizer

 OPT: Using VASP Dynamics algorithm
 CHAIN: Read ICHAIN            0

 POSCAR: Borophene with lattice parameter 5.051
  positions in direct lattice
  velocities in cartesian coordinates

 ion  position               nearest neighbor table
   1  0.669  0.000  0.100-   3 1.67   6 1.67   7 1.69   8 1.69   2 1.71
   2  0.331  0.000  0.100-   5 1.67   4 1.67   7 1.69   8 1.69   1 1.71
   3  0.000  0.331  0.100-   5 1.67   1 1.67   8 1.69   7 1.69   4 1.71
   4  0.000  0.669  0.100-   2 1.67   6 1.67   8 1.69   7 1.69   3 1.71
   5  0.331  0.331  0.100-   2 1.67   3 1.67   7 1.69   8 1.69   6 1.71
   6  0.669  0.669  0.100-   1 1.67   4 1.67   7 1.69   8 1.69   5 1.71
   7  0.667  0.333  0.100-   1 1.69   5 1.69   6 1.69   2 1.69   4 1.69   3 1.69
   8  0.333  0.667  0.100-   4 1.69   5 1.69   6 1.69   3 1.69   1 1.69   2 1.69

  LATTYP: Found a hexagonal cell.
 ALAT       =     5.0509997276
 C/A-ratio  =     2.9697091287

  Lattice vectors:

 A1 = (   4.3742940000,   2.5255000000,   0.0000000000)
 A2 = (  -4.3742940000,   2.5255000000,   0.0000000000)
 A3 = (   0.0000000000,   0.0000000000,  15.0000000000)

Analysis of symmetry for initial positions (statically):
 Subroutine PRICEL returns:
 Original cell was already a primitive cell.

 Routine SETGRP: Setting up the symmetry group for a
 hexagonal supercell.

 Subroutine GETGRP returns: Found 12 space group operations
 (whereof  6 operations were pure point group operations)
 out of a pool of 24 trial point group operations.

The static configuration has the point symmetry C_3v.
 The point group associated with its full space group is D_3d.

Analysis of symmetry for dynamics (positions and initial velocities):
 Subroutine PRICEL returns:
 Original cell was already a primitive cell.

 Routine SETGRP: Setting up the symmetry group for a
 hexagonal supercell.

 Subroutine GETGRP returns: Found 12 space group operations
 (whereof  6 operations were pure point group operations)
 out of a pool of 24 trial point group operations.

The dynamic configuration has the point symmetry C_3v.
 The point group associated with its full space group is D_3d.

 Subroutine INISYM returns: Found 12 space group operations
 (whereof  6 operations are pure point group operations),
 and found     1 'primitive' translations

                                     Primitive cell

  volume of cell :     331.4184

  direct lattice vectors                    reciprocal lattice vectors
     4.374294000  2.525500000  0.000000000     0.114304160  0.197980598  0.000000000
    -4.374294000  2.525500000  0.000000000    -0.114304160  0.197980598  0.000000000
     0.000000000  0.000000000 15.000000000     0.000000000  0.000000000  0.066666667

  length of vectors
     5.050999728  5.050999728 15.000000000     0.228608307  0.228608307  0.066666667

  position of ions in fractional coordinates (direct lattice)
     0.668931733  1.000000000  0.100000000
     0.331067267  1.000000000  0.100000000
     1.000000000  0.331067267  0.100000000
     1.000000000  0.668931733  0.100000000
     0.331067267  0.331067267  0.100000000
     0.668931733  0.668931733  0.100000000
     0.666666000  0.333333000  0.099956110
     0.333333000  0.666666000  0.100043890

  ion indices of the primitive-cell ions
   primitive index   ion index
                 1           1
                 2           2
                 3           3
                 4           4
                 5           5
                 6           6
                 7           7
                 8           8

 KPOINTS: k-points

Automatic generation of k-mesh.
 Grid dimensions read from file:
 generate k-points for:   17   17    1

 Generating k-lattice:

  Cartesian coordinates                     Fractional coordinates (reciprocal lattice)
     0.006723774  0.011645918  0.000000000     0.058823529 -0.000000000  0.000000000
    -0.006723774  0.011645918  0.000000000    -0.000000000  0.058823529  0.000000000
     0.000000000  0.000000000  0.066666667     0.000000000  0.000000000  1.000000000

  Length of vectors
     0.013447547  0.013447547  0.066666667

  Shift w.r.t. Gamma in fractional coordinates (k-lattice)
     0.000000000  0.000000000  0.000000000

 Subroutine IBZKPT returns following result:

 Found     33 irreducible k-points:

 Following reciprocal coordinates:
            Coordinates               Weight
  0.000000  0.000000  0.000000      1.000000
  0.058824  0.000000  0.000000      6.000000
  0.117647  0.000000  0.000000      6.000000
  0.176471  0.000000  0.000000      6.000000
  0.235294  0.000000  0.000000      6.000000
  0.294118  0.000000  0.000000      6.000000
  0.352941  0.000000  0.000000      6.000000
  0.411765  0.000000  0.000000      6.000000
  0.470588  0.000000  0.000000      6.000000
  0.058824  0.058824  0.000000      6.000000
  0.117647  0.058824  0.000000     12.000000
  0.176471  0.058824  0.000000     12.000000
  0.235294  0.058824  0.000000     12.000000
  0.294118  0.058824  0.000000     12.000000
  0.352941  0.058824  0.000000     12.000000
  0.411765  0.058824  0.000000     12.000000
  0.470588  0.058824  0.000000      6.000000
  0.117647  0.117647  0.000000      6.000000
  0.176471  0.117647  0.000000     12.000000
  0.235294  0.117647  0.000000     12.000000
  0.294118  0.117647  0.000000     12.000000
  0.352941  0.117647  0.000000     12.000000
  0.411765  0.117647  0.000000     12.000000
  0.176471  0.176471  0.000000      6.000000
  0.235294  0.176471  0.000000     12.000000
  0.294118  0.176471  0.000000     12.000000
  0.352941  0.176471  0.000000     12.000000
  0.411765  0.176471  0.000000      6.000000
  0.235294  0.235294  0.000000      6.000000
  0.294118  0.235294  0.000000     12.000000
  0.352941  0.235294  0.000000     12.000000
  0.294118  0.294118  0.000000      6.000000
  0.352941  0.294118  0.000000      6.000000

 Following cartesian coordinates:
            Coordinates               Weight
  0.000000  0.000000  0.000000      1.000000
  0.006724  0.011646  0.000000      6.000000
  0.013448  0.023292  0.000000      6.000000
  0.020171  0.034938  0.000000      6.000000
  0.026895  0.046584  0.000000      6.000000
  0.033619  0.058230  0.000000      6.000000
  0.040343  0.069876  0.000000      6.000000
  0.047066  0.081521  0.000000      6.000000
  0.053790  0.093167  0.000000      6.000000
 -0.000000  0.023292  0.000000      6.000000
  0.006724  0.034938  0.000000     12.000000
  0.013448  0.046584  0.000000     12.000000
  0.020171  0.058230  0.000000     12.000000
  0.026895  0.069876  0.000000     12.000000
  0.033619  0.081521  0.000000     12.000000
  0.040343  0.093167  0.000000     12.000000
  0.047066  0.104813  0.000000      6.000000
 -0.000000  0.046584  0.000000      6.000000
  0.006724  0.058230  0.000000     12.000000
  0.013448  0.069876  0.000000     12.000000
  0.020171  0.081521  0.000000     12.000000
  0.026895  0.093167  0.000000     12.000000
  0.033619  0.104813  0.000000     12.000000
 -0.000000  0.069876  0.000000      6.000000
  0.006724  0.081521  0.000000     12.000000
  0.013448  0.093167  0.000000     12.000000
  0.020171  0.104813  0.000000     12.000000
  0.026895  0.116459  0.000000      6.000000
 -0.000000  0.093167  0.000000      6.000000
  0.006724  0.104813  0.000000     12.000000
  0.013448  0.116459  0.000000     12.000000
  0.000000  0.116459  0.000000      6.000000
  0.006724  0.128105  0.000000      6.000000

 Subroutine IBZKPT_HF returns following result:

 Found    289 k-points in 1st BZ
 the following    289 k-points will be used (e.g. in the exchange kernel)
 Following reciprocal coordinates:   # in IRBZ
  0.000000  0.000000  0.000000    0.00346021   1 t-inv F
  0.058824  0.000000  0.000000    0.00346021   2 t-inv F
  0.117647  0.000000  0.000000    0.00346021   3 t-inv F
  0.176471  0.000000  0.000000    0.00346021   4 t-inv F
  0.235294  0.000000  0.000000    0.00346021   5 t-inv F
  0.294118  0.000000  0.000000    0.00346021   6 t-inv F
  0.352941  0.000000  0.000000    0.00346021   7 t-inv F
  0.411765  0.000000  0.000000    0.00346021   8 t-inv F
  0.470588  0.000000  0.000000    0.00346021   9 t-inv F
  0.058824  0.058824  0.000000    0.00346021  10 t-inv F
  0.117647  0.058824  0.000000    0.00346021  11 t-inv F
  0.176471  0.058824  0.000000    0.00346021  12 t-inv F
  0.235294  0.058824  0.000000    0.00346021  13 t-inv F
  0.294118  0.058824  0.000000    0.00346021  14 t-inv F
  0.352941  0.058824  0.000000    0.00346021  15 t-inv F
  0.411765  0.058824  0.000000    0.00346021  16 t-inv F
  0.470588  0.058824  0.000000    0.00346021  17 t-inv F
  0.117647  0.117647  0.000000    0.00346021  18 t-inv F
  0.176471  0.117647  0.000000    0.00346021  19 t-inv F
  0.235294  0.117647  0.000000    0.00346021  20 t-inv F
  0.294118  0.117647  0.000000    0.00346021  21 t-inv F
  0.352941  0.117647  0.000000    0.00346021  22 t-inv F
  0.411765  0.117647  0.000000    0.00346021  23 t-inv F
  0.176471  0.176471  0.000000    0.00346021  24 t-inv F
  0.235294  0.176471  0.000000    0.00346021  25 t-inv F
  0.294118  0.176471  0.000000    0.00346021  26 t-inv F
  0.352941  0.176471  0.000000    0.00346021  27 t-inv F
  0.411765  0.176471  0.000000    0.00346021  28 t-inv F
  0.235294  0.235294  0.000000    0.00346021  29 t-inv F
  0.294118  0.235294  0.000000    0.00346021  30 t-inv F
  0.352941  0.235294  0.000000    0.00346021  31 t-inv F
  0.294118  0.294118  0.000000    0.00346021  32 t-inv F
  0.352941  0.294118  0.000000    0.00346021  33 t-inv F
 -0.058824  0.058824  0.000000    0.00346021   2 t-inv F
  0.000000 -0.058824  0.000000    0.00346021   2 t-inv F
 -0.058824 -0.000000  0.000000    0.00346021   2 t-inv F
  0.058824 -0.058824  0.000000    0.00346021   2 t-inv F
 -0.000000  0.058824  0.000000    0.00346021   2 t-inv F
 -0.117647  0.117647  0.000000    0.00346021   3 t-inv F
  0.000000 -0.117647  0.000000    0.00346021   3 t-inv F
 -0.117647 -0.000000  0.000000    0.00346021   3 t-inv F
  0.117647 -0.117647  0.000000    0.00346021   3 t-inv F
 -0.000000  0.117647  0.000000    0.00346021   3 t-inv F
 -0.176471  0.176471  0.000000    0.00346021   4 t-inv F
  0.000000 -0.176471  0.000000    0.00346021   4 t-inv F
[...]
   0.02017132  0.08152142  0.00000000       0.042
   0.02689510  0.09316734  0.00000000       0.042
   0.03361887  0.10481326  0.00000000       0.042
  -0.00000000  0.06987551  0.00000000       0.021
   0.00672377  0.08152142  0.00000000       0.042
   0.01344755  0.09316734  0.00000000       0.042
   0.02017132  0.10481326  0.00000000       0.042
   0.02689510  0.11645918  0.00000000       0.021
  -0.00000000  0.09316734  0.00000000       0.021
   0.00672377  0.10481326  0.00000000       0.042
   0.01344755  0.11645918  0.00000000       0.042
   0.00000000  0.11645918  0.00000000       0.021
   0.00672377  0.12810509  0.00000000       0.021

 k-points in reciprocal lattice and weights: k-points
   0.00000000  0.00000000  0.00000000       0.003
   0.05882353  0.00000000  0.00000000       0.021
   0.11764706  0.00000000  0.00000000       0.021
   0.17647059  0.00000000  0.00000000       0.021
   0.23529412  0.00000000  0.00000000       0.021
   0.29411765  0.00000000  0.00000000       0.021
   0.35294118  0.00000000  0.00000000       0.021
   0.41176471  0.00000000  0.00000000       0.021
   0.47058824  0.00000000  0.00000000       0.021
   0.05882353  0.05882353  0.00000000       0.021
   0.11764706  0.05882353  0.00000000       0.042
   0.17647059  0.05882353  0.00000000       0.042
   0.23529412  0.05882353  0.00000000       0.042
   0.29411765  0.05882353  0.00000000       0.042
   0.35294118  0.05882353  0.00000000       0.042
   0.41176471  0.05882353  0.00000000       0.042
   0.47058824  0.05882353  0.00000000       0.021
   0.11764706  0.11764706  0.00000000       0.021
   0.17647059  0.11764706  0.00000000       0.042
   0.23529412  0.11764706  0.00000000       0.042
   0.29411765  0.11764706  0.00000000       0.042
   0.35294118  0.11764706  0.00000000       0.042
   0.41176471  0.11764706  0.00000000       0.042
   0.17647059  0.17647059  0.00000000       0.021
   0.23529412  0.17647059  0.00000000       0.042
   0.29411765  0.17647059  0.00000000       0.042
   0.35294118  0.17647059  0.00000000       0.042
   0.41176471  0.17647059  0.00000000       0.021
   0.23529412  0.23529412  0.00000000       0.021
   0.29411765  0.23529412  0.00000000       0.042
   0.35294118  0.23529412  0.00000000       0.042
   0.29411765  0.29411765  0.00000000       0.021
   0.35294118  0.29411765  0.00000000       0.021

 position of ions in fractional coordinates (direct lattice)
   0.66893173  0.00000000  0.10000000
   0.33106727  0.00000000  0.10000000
   0.00000000  0.33106727  0.10000000
   0.00000000  0.66893173  0.10000000
   0.33106727  0.33106727  0.10000000
   0.66893173  0.66893173  0.10000000
   0.66666600  0.33333300  0.09995611
   0.33333300  0.66666600  0.10004389

 position of ions in cartesian coordinates  (Angst):
   2.92610407  1.68938709  1.50000000
   1.44818556  0.83611038  1.50000000
  -1.44818556  0.83611038  1.50000000
  -2.92610407  1.68938709  1.50000000
   0.00000000  1.67222076  1.50000000
  -0.00000000  3.37877418  1.50000000
   1.45809654  2.52549747  1.49934166
  -1.45809654  2.52549747  1.50065834

 k-point   1 :   0.0000 0.0000 0.0000  plane waves:    7149
 k-point   2 :   0.0588 0.0000 0.0000  plane waves:    7179
 k-point   3 :   0.1176 0.0000 0.0000  plane waves:    7173
 k-point   4 :   0.1765 0.0000 0.0000  plane waves:    7193
 k-point   5 :   0.2353 0.0000 0.0000  plane waves:    7197
 k-point   6 :   0.2941 0.0000 0.0000  plane waves:    7185
 k-point   7 :   0.3529 0.0000 0.0000  plane waves:    7187
 k-point   8 :   0.4118 0.0000 0.0000  plane waves:    7195
 k-point   9 :   0.4706 0.0000 0.0000  plane waves:    7208
 k-point  10 :   0.0588 0.0588 0.0000  plane waves:    7185
 k-point  11 :   0.1176 0.0588 0.0000  plane waves:    7192
 k-point  12 :   0.1765 0.0588 0.0000  plane waves:    7193
 k-point  13 :   0.2353 0.0588 0.0000  plane waves:    7191
 k-point  14 :   0.2941 0.0588 0.0000  plane waves:    7184
 k-point  15 :   0.3529 0.0588 0.0000  plane waves:    7170
 k-point  16 :   0.4118 0.0588 0.0000  plane waves:    7190
 k-point  17 :   0.4706 0.0588 0.0000  plane waves:    7194
 k-point  18 :   0.1176 0.1176 0.0000  plane waves:    7181
 k-point  19 :   0.1765 0.1176 0.0000  plane waves:    7190
 k-point  20 :   0.2353 0.1176 0.0000  plane waves:    7187
 k-point  21 :   0.2941 0.1176 0.0000  plane waves:    7183
 k-point  22 :   0.3529 0.1176 0.0000  plane waves:    7186
 k-point  23 :   0.4118 0.1176 0.0000  plane waves:    7200
 k-point  24 :   0.1765 0.1765 0.0000  plane waves:    7183
 k-point  25 :   0.2353 0.1765 0.0000  plane waves:    7169
 k-point  26 :   0.2941 0.1765 0.0000  plane waves:    7184
 k-point  27 :   0.3529 0.1765 0.0000  plane waves:    7183
 k-point  28 :   0.4118 0.1765 0.0000  plane waves:    7176
 k-point  29 :   0.2353 0.2353 0.0000  plane waves:    7181
 k-point  30 :   0.2941 0.2353 0.0000  plane waves:    7169
 k-point  31 :   0.3529 0.2353 0.0000  plane waves:    7158
 k-point  32 :   0.2941 0.2941 0.0000  plane waves:    7151
 k-point  33 :   0.3529 0.2941 0.0000  plane waves:    7161

 maximum and minimum number of plane-waves per node :      7208     7149

 maximum number of plane-waves:      7208
 maximum index in each direction:
   IXMAX=    8   IYMAX=    8   IZMAX=   25
   IXMIN=   -9   IYMIN=   -9   IZMIN=  -25

 serial   3D FFT for wavefunctions
 parallel 3D FFT for charge:
    minimum data exchange during FFTs selected (reduces bandwidth)

 FFT grid for exact exchange (Hartree Fock)
  NGX = 28; NGY = 28; NGZ = 80

 Radii for the augmentation spheres in the non-local exchange
 for species   1 augmentation radius   0.959 (default was   0.767)
       energy cutoff for augmentation   1800.0
 Maximum index for augmentation-charges in exchange          702
  SETUP_FOCK is finished

 Broyden mixing: mesh for mixing (old mesh)
   NGX = 17   NGY = 17   NGZ = 51
  (NGX  = 72   NGY  = 72   NGZ  =216)
  gives a total of  14739 points

 initial charge density was supplied:
 charge density of overlapping atoms calculated
 number of electron      24.0000000 magnetization
 charge density for first step will be calculated from the start-wavefunctions

 Maximum index for augmentation-charges          379 (set IRDMAX)

 First call to EWALD:  gamma=   0.256
 Maximum number of real-space cells 4x 4x 2
 Maximum number of reciprocal cells 2x 2x 5

--------------------------------------- Ionic step        1  -------------------------------------------

--------------------------------------- Iteration      1(   1)  ---------------------------------------

 eigenvalue-minimisations  :  4752
 total energy-change (2. order) : 0.2664006E+02  (-0.9180266E+03)
 number of electron      24.0000000 magnetization
 augmentation part       24.0000000 magnetization

 Free energy of the ion-electron system (eV)
  alpha Z        PSCENC =        13.28497877
  Ewald energy   TEWEN  =      1756.86243280
  -Hartree energ DENC   =     -2116.54577085
  -exchange      EXHF   =         0.00000000
  -V(xc)+E(xc)   XCENC  =        55.32216351
  PAW double counting   =       347.99892404     -488.52336599
  entropy T*S    EENTRO =        -0.01512755
  eigenvalues    EBANDS =      -103.87384002
  atomic energy  EATOM  =       562.12966956
  free energy    TOTEN  =        26.64006426 eV

  energy without entropy =       26.65519181  energy(sigma->0) =       26.64762803
  exchange ACFDT corr.  =         0.00000000  see jH, gK, PRB 81, 115126

[...]

 eigenvalue-minimisations  :  6336
 total energy-change (2. order) :-0.2227867E+03  (-0.2213818E+03)
 number of electron      24.0000000 magnetization
 augmentation part       24.0000000 magnetization

[...]

 eigenvalue-minimisations  :     0
 total energy-change (2. order) : 0.7918513E+01  (-0.2921608E+01)
 number of electron      24.0000000 magnetization
 augmentation part       -0.0219847 magnetization

[...]

--------------------------------------- Iteration      1(  23)  ---------------------------------------

 eigenvalue-minimisations  :     0
 total energy-change (2. order) :-0.8344664E-06  (-0.5159056E-06)
 number of electron      24.0000000 magnetization
 augmentation part       -0.0483838 magnetization

 Free energy of the ion-electron system (eV)
  alpha Z        PSCENC =        13.28497877
  Ewald energy   TEWEN  =      1756.86243280
  -Hartree energ DENC   =     -2214.57398270
  -exchange      EXHF   =        41.94301928
  -V(xc)+E(xc)   XCENC  =        44.39969911
  PAW double counting   =      2578.16903361    -2572.77829620
  entropy T*S    EENTRO =        -0.00355209
  eigenvalues    EBANDS =      -264.99941634
  atomic energy  EATOM  =       562.12966956
  free energy    TOTEN  =       -55.56652613 eV

  energy without entropy =      -55.56297404  energy(sigma->0) =      -55.56475009
  exchange ACFDT corr.  =        -0.00045898  see jH, gK, PRB 81, 115126

  average scaling for gradient   1.1502

 average (electrostatic) potential at core
  the test charge radii are     0.7672
  (the norm of the test charge is              1.0000)
       1 -32.5415       2 -32.5416       3 -32.5416       4 -32.5415       5 -32.5416
       6 -32.5415       7 -33.9250       8 -33.9250

 E-fermi :  -2.1997     XC(G=0):  -2.4780     alpha+bet : -2.6791

 Fermi energy:        -2.1996759313

 k-point     1 :       0.0000    0.0000    0.0000
  band No.  band energies     occupation
      1     -20.0628      2.00000
      2     -15.3614      2.00000
      3     -15.2887      2.00000
      4     -15.2886      2.00000
      5     -12.9601      2.00000
      6     -12.9601      2.00000
      7     -10.6565      2.00000
      8      -9.8260      2.00000
      9      -4.2708      2.00000
     10      -4.2708      2.00000
     11      -2.2915      1.78989
     12      -1.7284      0.00000
     13      -1.7284      0.00000
     14      -1.3773      0.00000
     15      -1.3773      0.00000
     16      -1.0575      0.00000
     17      -1.0575      0.00000
     18       0.9418      0.00000
     19       1.7972      0.00000
     20       2.4388      0.00000
     21       2.9706      0.00000
     22       4.5530      0.00000
     23       5.0715      0.00000
     24       6.4255      0.00000
     25       7.0071      0.00000
     26       7.0071      0.00000
     27       7.3330      0.00000
     28       8.1589      0.00000
     29       8.1589      0.00000
     30       8.5381      0.00000
     31       9.2858      0.00000
     32       9.3203      0.00000
     33       9.4114      0.00000
     34       9.4996      0.00000
     35       9.6394      0.00000
     36       9.6763      0.00000
     37       9.6952      0.00000
     38       9.6980      0.00000
     39       9.6998      0.00000
     40       9.7018      0.00000
     41       9.7174      0.00000
     42       9.7343      0.00000
     43       9.7406      0.00000
     44       9.7505      0.00000
     45       9.9354      0.00000
     46      10.5463      0.00000
     47      10.5874      0.00000
     48      10.7090      0.00000

[...]

 k-point    33 :       0.3529    0.2941    0.0000
  band No.  band energies     occupation
      1     -18.7617      2.00000
      2     -18.5574      2.00000
      3     -16.4557      2.00000
      4     -12.6470      2.00000
      5     -12.3040      2.00000
      6     -10.9189      2.00000
      7     -10.6945      2.00000
      8      -7.7159      2.00000
      9      -7.4041      2.00000
     10      -7.0845      2.00000
     11      -6.9490      2.00000
     12      -5.2526      2.00000
     13       0.8382      0.00000
     14       1.5199      0.00000
     15       1.6584      0.00000
     16       1.8264      0.00000
     17       2.5575      0.00000
     18       2.8796      0.00000
     19       3.2157      0.00000
     20       3.3818      0.00000
     21       3.8559      0.00000
     22       4.3475      0.00000
     23       4.4285      0.00000
     24       4.8505      0.00000
     25       4.8574      0.00000
     26       4.9186      0.00000
     27       5.3430      0.00000
     28       5.9694      0.00000
     29       6.1458      0.00000
     30       6.2663      0.00000
     31       6.8919      0.00000
     32       6.9350      0.00000
     33       7.3506      0.00000
     34       7.3684      0.00000
     35       7.4575      0.00000
     36       7.8286      0.00000
     37       8.2143      0.00000
     38       8.6153      0.00000
     39      10.0092      0.00000
     40      10.5455      0.00000
     41      10.6486      0.00000
     42      10.6589      0.00000
     43      10.9286      0.00000
     44      11.2528      0.00000
     45      11.6270      0.00000
     46      11.6931      0.00000
     47      11.9194      0.00000
     48      12.1789      0.00000

 soft charge-density along one line, spin component           1
         0         1         2         3         4         5         6         7         8         9
 total charge-density along one line

------------------------ aborting loop because EDIFF is reached ----------------------------------------

 total charge

# of ion       s       p       d       tot
    1        0.695   1.400   0.000   2.096
    2        0.695   1.400   0.000   2.096
    3        0.695   1.400   0.000   2.096
    4        0.695   1.400   0.000   2.096
    5        0.695   1.400   0.000   2.096
    6        0.695   1.400   0.000   2.096
    7        0.675   1.375   0.000   2.050
    8        0.675   1.375   0.000   2.050
tot          5.523  11.150   0.000  16.673

 VOLUME and BASIS-vectors are now :
  energy-cutoff  :      450.00
  volume of cell :      331.42
      direct lattice vectors                 reciprocal lattice vectors
     4.374294000  2.525500000  0.000000000     0.114304160  0.197980598  0.000000000
    -4.374294000  2.525500000  0.000000000    -0.114304160  0.197980598  0.000000000
     0.000000000  0.000000000 15.000000000     0.000000000  0.000000000  0.066666667

  length of vectors
     5.050999728  5.050999728 15.000000000     0.228608307  0.228608307  0.066666667

 FORCES acting on ions:
    Electron-Ion                     Ewald-Force                    Non-Local-Force
   -.256E+02 -.148E+02 0.307E-05   0.283E+02 0.163E+02 0.764E-07   -.277E+01 -.160E+01 0.720E-20
   0.256E+02 0.148E+02 0.225E-05   -.283E+02 -.163E+02 0.145E-06   0.277E+01 0.160E+01 -.148E-20
   -.256E+02 0.148E+02 0.223E-05   0.283E+02 -.163E+02 -.145E-06   -.277E+01 0.160E+01 0.762E-20
   0.256E+02 -.148E+02 0.302E-05   -.283E+02 0.163E+02 -.765E-07   0.277E+01 -.160E+01 0.339E-20
   -.310E-05 0.296E+02 0.309E-05   0.142E-13 -.327E+02 -.627E-11   0.277E-16 0.320E+01 0.593E-20
   0.400E-05 -.296E+02 0.220E-05   0.142E-13 0.327E+02 -.627E-11   -.214E-16 -.320E+01 0.254E-20
   0.413E-04 0.721E-04 0.158E+00   0.211E-03 0.309E-03 -.163E+00   -.141E-17 0.132E-17 0.512E-02
   -.411E-04 0.719E-04 -.158E+00   -.211E-03 0.309E-03 0.163E+00   -.268E-17 0.708E-19 -.512E-02
   0.279E-07 0.889E-03 0.356E-04   -.373E-14 0.320E-15 0.666E-15   0.214E-17 -.443E-15 0.000E+00

 POSITION                                       TOTAL-FORCE (eV/Angst)
      2.92610      1.68939      1.50000        -0.174726     -0.100878     -0.000000
      1.44819      0.83611      1.50000         0.174726      0.100878     -0.000000
     -1.44819      0.83611      1.50000        -0.174726      0.100878     -0.000000
     -2.92610      1.68939      1.50000         0.174726     -0.100878     -0.000000
      0.00000      1.67222      1.50000         0.000000      0.201757     -0.000000
     -0.00000      3.37877      1.50000         0.000000     -0.201757     -0.000000
      1.45810      2.52550      1.49934         0.000000     -0.000000     -0.000156
     -1.45810      2.52550      1.50066         0.000000     -0.000000      0.000156
    total drift:                                0.000000      0.000889      0.000036

  FREE ENERGIE OF THE ION-ELECTRON SYSTEM (eV)
  free  energy   TOTEN  =       -55.56652613 eV

  energy  without entropy=      -55.56297404  energy(sigma->0) =      -55.56475009

 stress matrix after NEB project (eV)
      0.00000      0.00000      0.00000
      0.00000      0.00000      0.00000
      0.00000      0.00000      0.00000
  FORCES: max atom, RMS     0.201757    0.174726
  FORCE total and by dimension    0.494201    0.201757
  Stress total and by dimension    0.000000    0.000000

[...]

 writing wavefunctions

 total charge

# of ion       s       p       d       tot
    1        0.695   1.400   0.000   2.096
    2        0.695   1.400   0.000   2.096
    3        0.695   1.400   0.000   2.096
    4        0.695   1.400   0.000   2.096
    5        0.695   1.400   0.000   2.096
    6        0.695   1.400   0.000   2.096
    7        0.675   1.375   0.000   2.050
    8        0.675   1.375   0.000   2.050
tot          5.523  11.150   0.000  16.673