 vasp.6.3.2 27Jun22 (build Dec 22 2022 13:13:19) complex

 executed on             LinuxIFC date 2024.03.04  18:56:16

 INCAR:
   SYSTEM = BS
   ISTART = 0
   ICHARG = 11
   PREC = Accurate
   LORBIT = 11
   ENCUT = 450
   ALGO = Normal
   NELM = 64
   EDIFF = 1E-6
   EDIFFG = -1E-3
   SIGMA = 0.1
   ISMEAR = 0
   GGA = PE
   IVDW = 12
   ISYM = 0

 POTCAR:    PAW_PBE B 06Sep2000
 POTCAR:    PAW_PBE C 08Apr2002
 POTCAR:    PAW_PBE B 06Sep2000
   VRHFIN =B: s2p1

   TITEL  = PAW_PBE B 06Sep2000
   POMASS =   10.811; ZVAL   =    3.000    mass and valenz
   ENMAX  =  318.614; ENMIN  =  238.960 eV

   TITEL  = PAW_PBE C 08Apr2002
   POMASS =   12.011; ZVAL   =    4.000    mass and valenz
   ENMAX  =  400.000; ENMIN  =  300.000 eV

  PAW_PBE B 06Sep2000                   :
  PAW_PBE C 08Apr2002                   :

 POSCAR: Graphene-B4C3 Top with lattice parameter
  positions in direct lattice
  velocities in cartesian coordinates
 exchange correlation table for  LEXCH =        8
   RHO(1)=    0.500       N(1)  =     2000
   RHO(2)=  100.500       N(2)  =     4000

 VTST: version 4.2, (08/11/21)

 CHAIN: initializing optimizer

 OPT: Using VASP Dynamics algorithm
 CHAIN: Read ICHAIN            0

 POSCAR: Graphene-B4C3 Top with lattice parameter
  positions in direct lattice
  velocities in cartesian coordinates

 ion  position               nearest neighbor table
   1  0.004  0.003  0.102-   5 1.57   6 1.57   7 1.57   3 1.72   2 1.72   4 1.72
   2  0.359  0.003  0.101-   6 1.56   5 1.65   7 1.65   1 1.72
   3  0.004  0.358  0.101-   7 1.56   6 1.65   5 1.65   1 1.72
   4  0.649  0.648  0.101-   5 1.56   7 1.65   6 1.65   1 1.72
   5  0.328  0.326  0.101-   4 1.56   1 1.57   2 1.65   3 1.65
   6  0.681  0.003  0.101-   2 1.56   1 1.57   3 1.65   4 1.65
   7  0.004  0.679  0.101-   3 1.56   1 1.57   4 1.65   2 1.65
   8  0.000  0.500  0.335-   9 1.40  11 1.40  13 1.40
   9  0.167  0.333  0.335-   8 1.40  12 1.40  10 1.40
  10  0.000  0.000  0.335-  11 1.40   9 1.40  15 1.40
  11  0.167  0.833  0.335-  14 1.40   8 1.40  10 1.40
  12  0.500  0.500  0.335-  15 1.40   9 1.40  13 1.40
  13  0.667  0.333  0.335-  12 1.40   8 1.40  14 1.40
  14  0.500  0.000  0.335-  11 1.40  15 1.40  13 1.40
  15  0.667  0.833  0.335-  12 1.40  14 1.40  10 1.40

IMPORTANT INFORMATION: All symmetrisations will be switched off!
NOSYMM: (Re-)initialisation of all symmetry stuff for point group C_1.

                                     Primitive cell

  volume of cell :     305.0624

  direct lattice vectors                    reciprocal lattice vectors
     4.196759107  2.423000000  0.000000000     0.119139552  0.206355757  0.000000000
    -4.196759107  2.423000000  0.000000000    -0.119139552  0.206355757  0.000000000
     0.000000000  0.000000000 15.000000000     0.000000000  0.000000000  0.066666667

  length of vectors
     4.846000000  4.846000000 15.000000000     0.238279104  0.238279104  0.066666667

  position of ions in fractional coordinates (direct lattice)
     0.004056526  0.002697343  0.101501060
     0.359245494  0.002978704  0.100711409
     0.003767832  0.357599513  0.100712169
     0.649148177  0.647506274  0.100708602
     0.327784757  0.326144145  0.100730862
     0.680601878  0.002974890  0.100730542
     0.003770558  0.678959212  0.100727858
     0.000132595  0.500063036  0.335115331
     0.166783864  0.333452843  0.335150012
     0.000115386  0.000071038  0.335075930
     0.166825953  0.833402697  0.335153906
     0.500125878  0.500099855  0.335118110
     0.666781160  0.333405941  0.335013099
     0.500087443  0.000053650  0.335113676
     0.666733165  0.833358192  0.335150101

  ion indices of the primitive-cell ions
   primitive index   ion index
                 1           1
                 2           2
                 3           3
                 4           4
                 5           5
                 6           6
                 7           7
                 8           8
                 9           9
                10          10
                11          11
                12          12
                13          13
                14          14
                15          15

 KPOINTS: K-points

Interpolating k-points between supplied coordinates.

 Line segments in fractional coordinates (reciprocal lattice):
    0.000000  0.000000  0.000000  ...  0.333000  0.333000  0.000000
    0.333000  0.333000  0.000000  ...  0.000000  0.500000  0.000000
    0.000000  0.500000  0.000000  ...  0.000000  0.000000  0.000000

 Generated   128 points on each line segment, for a total of    384 k-points:

 Following reciprocal coordinates:
            Coordinates               Weight
  0.000000  0.000000  0.000000      0.002604
  0.002622  0.002622  0.000000      0.002604
  0.005244  0.005244  0.000000      0.002604
  0.007866  0.007866  0.000000      0.002604
  0.010488  0.010488  0.000000      0.002604
  0.013110  0.013110  0.000000      0.002604
  0.015732  0.015732  0.000000      0.002604
  0.018354  0.018354  0.000000      0.002604
  0.020976  0.020976  0.000000      0.002604
  0.023598  0.023598  0.000000      0.002604
  0.026220  0.026220  0.000000      0.002604
  0.028843  0.028843  0.000000      0.002604
  0.031465  0.031465  0.000000      0.002604
  0.034087  0.034087  0.000000      0.002604
  0.036709  0.036709  0.000000      0.002604
  0.039331  0.039331  0.000000      0.002604
  0.041953  0.041953  0.000000      0.002604
  0.044575  0.044575  0.000000      0.002604
  0.047197  0.047197  0.000000      0.002604
  0.049819  0.049819  0.000000      0.002604
  0.052441  0.052441  0.000000      0.002604
  0.055063  0.055063  0.000000      0.002604
  0.057685  0.057685  0.000000      0.002604
  0.060307  0.060307  0.000000      0.002604
  0.062929  0.062929  0.000000      0.002604
  0.065551  0.065551  0.000000      0.002604
  0.068173  0.068173  0.000000      0.002604
  0.070795  0.070795  0.000000      0.002604
  0.073417  0.073417  0.000000      0.002604
  0.076039  0.076039  0.000000      0.002604
  0.078661  0.078661  0.000000      0.002604
  0.081283  0.081283  0.000000      0.002604
  0.083906  0.083906  0.000000      0.002604
  0.086528  0.086528  0.000000      0.002604
  0.089150  0.089150  0.000000      0.002604
  0.091772  0.091772  0.000000      0.002604
  0.094394  0.094394  0.000000      0.002604
  0.097016  0.097016  0.000000      0.002604
  0.099638  0.099638  0.000000      0.002604
  0.102260  0.102260  0.000000      0.002604
  0.104882  0.104882  0.000000      0.002604
  0.107504  0.107504  0.000000      0.002604
  0.110126  0.110126  0.000000      0.002604
  0.112748  0.112748  0.000000      0.002604
  0.115370  0.115370  0.000000      0.002604
  0.117992  0.117992  0.000000      0.002604
  0.120614  0.120614  0.000000      0.002604
  0.123236  0.123236  0.000000      0.002604
  0.125858  0.125858  0.000000      0.002604
  0.128480  0.128480  0.000000      0.002604
  0.131102  0.131102  0.000000      0.002604
  0.133724  0.133724  0.000000      0.002604
  0.136346  0.136346  0.000000      0.002604
  0.138969  0.138969  0.000000      0.002604
  0.141591  0.141591  0.000000      0.002604
  0.144213  0.144213  0.000000      0.002604
  0.146835  0.146835  0.000000      0.002604
  0.149457  0.149457  0.000000      0.002604
  0.152079  0.152079  0.000000      0.002604
  0.154701  0.154701  0.000000      0.002604
[...]
  0.000000  0.055118  0.000000      0.002604
  0.000000  0.051181  0.000000      0.002604
  0.000000  0.047244  0.000000      0.002604
  0.000000  0.043307  0.000000      0.002604
  0.000000  0.039370  0.000000      0.002604
  0.000000  0.035433  0.000000      0.002604
  0.000000  0.031496  0.000000      0.002604
  0.000000  0.027559  0.000000      0.002604
  0.000000  0.023622  0.000000      0.002604
  0.000000  0.019685  0.000000      0.002604
  0.000000  0.015748  0.000000      0.002604
  0.000000  0.011811  0.000000      0.002604
  0.000000  0.007874  0.000000      0.002604
  0.000000  0.003937  0.000000      0.002604
  0.000000  0.000000  0.000000      0.002604

 Following cartesian coordinates:
            Coordinates               Weight
  0.000000  0.000000  0.000000      0.002604
  0.000000  0.001082  0.000000      0.002604
  0.000000  0.002164  0.000000      0.002604
 -0.000000  0.003246  0.000000      0.002604
  0.000000  0.004329  0.000000      0.002604
 -0.000000  0.005411  0.000000      0.002604
 -0.000000  0.006493  0.000000      0.002604
  0.000000  0.007575  0.000000      0.002604
  0.000000  0.008657  0.000000      0.002604
 -0.000000  0.009739  0.000000      0.002604
 -0.000000  0.010821  0.000000      0.002604
 -0.000000  0.011904  0.000000      0.002604
 -0.000000  0.012986  0.000000      0.002604
  0.000000  0.014068  0.000000      0.002604
  0.000000  0.015150  0.000000      0.002604
  0.000000  0.016232  0.000000      0.002604
  0.000000  0.017314  0.000000      0.002604
  0.000000  0.018397  0.000000      0.002604
 -0.000000  0.019479  0.000000      0.002604
 -0.000000  0.020561  0.000000      0.002604
 -0.000000  0.021643  0.000000      0.002604
 -0.000000  0.022725  0.000000      0.002604
 -0.000000  0.023807  0.000000      0.002604
 -0.000000  0.024889  0.000000      0.002604
 -0.000000  0.025972  0.000000      0.002604
 -0.000000  0.027054  0.000000      0.002604
  0.000000  0.028136  0.000000      0.002604
 -0.000000  0.029218  0.000000      0.002604
  0.000000  0.030300  0.000000      0.002604
 -0.000000  0.031382  0.000000      0.002604
  0.000000  0.032464  0.000000      0.002604
 -0.000000  0.033547  0.000000      0.002604
  0.000000  0.034629  0.000000      0.002604
  0.000000  0.035711  0.000000      0.002604
  0.000000  0.036793  0.000000      0.002604
  0.000000  0.037875  0.000000      0.002604
 -0.000000  0.038957  0.000000      0.002604
  0.000000  0.040040  0.000000      0.002604
 -0.000000  0.041122  0.000000      0.002604
  0.000000  0.042204  0.000000      0.002604
 -0.000000  0.043286  0.000000      0.002604
  0.000000  0.044368  0.000000      0.002604
 -0.000000  0.045450  0.000000      0.002604
  0.000000  0.046532  0.000000      0.002604
 -0.000000  0.047615  0.000000      0.002604
  0.000000  0.048697  0.000000      0.002604
 -0.000000  0.049779  0.000000      0.002604
  0.000000  0.050861  0.000000      0.002604
 -0.000000  0.051943  0.000000      0.002604
  0.000000  0.053025  0.000000      0.002604
 -0.000000  0.054107  0.000000      0.002604
  0.000000  0.055190  0.000000      0.002604
  0.000000  0.056272  0.000000      0.002604
 -0.000000  0.057354  0.000000      0.002604
 -0.000000  0.058436  0.000000      0.002604
  0.000000  0.059518  0.000000      0.002604
  0.000000  0.060600  0.000000      0.002604
 -0.000000  0.061682  0.000000      0.002604
 -0.000000  0.062765  0.000000      0.002604
  0.000000  0.063847  0.000000      0.002604
[...]
 -0.006567  0.011374  0.000000      0.002604
 -0.006098  0.010562  0.000000      0.002604
 -0.005629  0.009749  0.000000      0.002604
 -0.005160  0.008937  0.000000      0.002604
 -0.004691  0.008124  0.000000      0.002604
 -0.004221  0.007312  0.000000      0.002604
 -0.003752  0.006499  0.000000      0.002604
[...]
 k-point  42 :   0.1075 0.1075 0.0000  plane waves:    6637
 k-point  43 :   0.1101 0.1101 0.0000  plane waves:    6631
 k-point  44 :   0.1127 0.1127 0.0000  plane waves:    6637
 k-point  45 :   0.1154 0.1154 0.0000  plane waves:    6617
 k-point  46 :   0.1180 0.1180 0.0000  plane waves:    6613
 k-point  47 :   0.1206 0.1206 0.0000  plane waves:    6621
 k-point  48 :   0.1232 0.1232 0.0000  plane waves:    6615
 k-point  49 :   0.1259 0.1259 0.0000  plane waves:    6615
 k-point  50 :   0.1285 0.1285 0.0000  plane waves:    6623
 k-point  51 :   0.1311 0.1311 0.0000  plane waves:    6623
 k-point  52 :   0.1337 0.1337 0.0000  plane waves:    6629
 k-point  53 :   0.1363 0.1363 0.0000  plane waves:    6629
 k-point  54 :   0.1390 0.1390 0.0000  plane waves:    6625
 k-point  55 :   0.1416 0.1416 0.0000  plane waves:    6619
 k-point  56 :   0.1442 0.1442 0.0000  plane waves:    6623
 k-point  57 :   0.1468 0.1468 0.0000  plane waves:    6621
 k-point  58 :   0.1495 0.1495 0.0000  plane waves:    6625
 k-point  59 :   0.1521 0.1521 0.0000  plane waves:    6615
 k-point  60 :   0.1547 0.1547 0.0000  plane waves:    6615
[...]
 k-point 370 :   0.0000 0.0551 0.0000  plane waves:    6629
 k-point 371 :   0.0000 0.0512 0.0000  plane waves:    6633
 k-point 372 :   0.0000 0.0472 0.0000  plane waves:    6635
 k-point 373 :   0.0000 0.0433 0.0000  plane waves:    6643
 k-point 374 :   0.0000 0.0394 0.0000  plane waves:    6643
 k-point 375 :   0.0000 0.0354 0.0000  plane waves:    6655
 k-point 376 :   0.0000 0.0315 0.0000  plane waves:    6663
 k-point 377 :   0.0000 0.0276 0.0000  plane waves:    6667
 k-point 378 :   0.0000 0.0236 0.0000  plane waves:    6667
 k-point 379 :   0.0000 0.0197 0.0000  plane waves:    6663
 k-point 380 :   0.0000 0.0157 0.0000  plane waves:    6667
 k-point 381 :   0.0000 0.0118 0.0000  plane waves:    6663
 k-point 382 :   0.0000 0.0079 0.0000  plane waves:    6657
 k-point 383 :   0.0000 0.0039 0.0000  plane waves:    6657
 k-point 384 :   0.0000 0.0000 0.0000  plane waves:    6645

 maximum and minimum number of plane-waves per node :      6669     6582

 maximum number of plane-waves:      6669
 maximum index in each direction:
   IXMAX=    8   IYMAX=    8   IZMAX=   25
   IXMIN=   -8   IYMIN=   -8   IZMIN=  -25

 serial   3D FFT for wavefunctions
 parallel 3D FFT for charge:
    minimum data exchange during FFTs selected (reduces bandwidth)

 initial charge density was supplied:
 number of electron      56.0000000 magnetization
 keeping initial charge density in first step

 Maximum index for augmentation-charges          392 (set IRDMAX)

 First call to EWALD:  gamma=   0.263
 Maximum number of real-space cells 4x 4x 2
 Maximum number of reciprocal cells 2x 2x 6

--------------------------------------- Iteration      1(   1)  ---------------------------------------

 eigenvalue-minimisations  : 36864
 total energy-change (2. order) : 0.1740715E+03  (-0.2443546E+04)
 number of electron      56.0000000 magnetization
 augmentation part       56.0000000 magnetization

 Free energy of the ion-electron system (eV)
  alpha Z        PSCENC =        58.30706670
  Ewald energy   TEWEN  =      4730.33489792
  -Hartree energ DENC   =     -6487.01695553
  -exchange      EXHF   =         0.00000000
  -V(xc)+E(xc)   XCENC  =       180.67204252
  PAW double counting   =      5796.18155970    -5800.61295465
  entropy T*S    EENTRO =        -0.01884877
  eigenvalues    EBANDS =      -207.03871975
  atomic energy  EATOM  =      1903.26342058
  Solvation  Ediel_sol  =         0.00000000
  free energy    TOTEN  =       174.07150872 eV

  energy without entropy =      174.09035749  energy(sigma->0) =      174.08093310

[...]

 eigenvalue-minimisations  : 58512
 total energy-change (2. order) :-0.2886684E+03  (-0.2872321E+03)
 number of electron      56.0000000 magnetization
 augmentation part       56.0000000 magnetization

[...]

--------------------------------------- Iteration      1(   6)  ---------------------------------------

 eigenvalue-minimisations  : 61104
 total energy-change (2. order) :-0.1161934E-06  (-0.1161845E-06)
 number of electron      56.0000000 magnetization
 augmentation part       56.0000000 magnetization

 Free energy of the ion-electron system (eV)
  alpha Z        PSCENC =        58.30706670
  Ewald energy   TEWEN  =      4730.33489792
  -Hartree energ DENC   =     -6487.01695553
  -exchange      EXHF   =         0.00000000
  -V(xc)+E(xc)   XCENC  =       180.67204252
  PAW double counting   =      5796.18155970    -5800.61295465
  entropy T*S    EENTRO =        -0.00224757
  eigenvalues    EBANDS =      -505.57509689
  atomic energy  EATOM  =      1903.26342058
  Solvation  Ediel_sol  =         0.00000000
  free energy    TOTEN  =      -124.44826723 eV

  energy without entropy =     -124.44601966  energy(sigma->0) =     -124.44714345

 average (electrostatic) potential at core
  the test charge radii are     0.7672  0.6991
  (the norm of the test charge is              1.0000)
       1 -35.5647       2 -34.1054       3 -34.1053       4 -34.1053       5 -55.3293
       6 -55.3290       7 -55.3292       8 -55.6506       9 -55.6558      10 -55.6585
      11 -55.6555      12 -55.6506      13 -55.6603      14 -55.6508      15 -55.6556

 E-fermi :  -0.3230     XC(G=0):  -5.1701     alpha+bet : -5.0692

 Fermi energy:        -0.3229857702

 k-point     1 :       0.0000    0.0000    0.0000
  band No.  band energies     occupation
      1     -20.2409      2.00000
      2     -17.3877      2.00000
      3     -14.7534      2.00000
      4     -14.7517      2.00000
      5     -14.7516      2.00000
      6     -13.8696      2.00000
      7     -13.8695      2.00000
      8     -13.8677      2.00000
      9     -13.4991      2.00000
     10     -13.4990      2.00000
     11     -10.4224      2.00000
     12      -9.4335      2.00000
     13      -9.4334      2.00000
     14      -8.3806      2.00000
     15      -7.6460      2.00000
     16      -6.8495      2.00000
     17      -6.8494      2.00000
     18      -6.8493      2.00000
     19      -6.7215      2.00000
     20      -3.2999      2.00000
     21      -3.2998      2.00000
     22      -2.9030      2.00000
     23      -2.9029      2.00000
     24      -2.7964      2.00000
     25      -2.7961      2.00000
     26      -2.7878      2.00000
     27      -0.8764      2.00000
     28      -0.8742      2.00000
     29       0.9828      0.00000
     30       0.9902      0.00000
     31       1.3196      0.00000
     32       1.5840      0.00000
     33       1.5892      0.00000
     34       2.0895      0.00000
     35       2.8861      0.00000
     36       3.5048      0.00000
     37       3.5051      0.00000
     38       3.6091      0.00000
     39       4.6207      0.00000
     40       6.7289      0.00000
     41       7.4686      0.00000
     42       7.5941      0.00000
     43       7.6035      0.00000
     44       7.6037      0.00000
     45       7.8779      0.00000
     46       8.3824      0.00000
     47       8.3865      0.00000
     48       8.7879      0.00000

[...]

 k-point   384 :       0.0000    0.0000    0.0000
  band No.  band energies     occupation
      1     -20.2409      2.00000
      2     -17.3877      2.00000
      3     -14.7534      2.00000
      4     -14.7517      2.00000
      5     -14.7516      2.00000
      6     -13.8696      2.00000
      7     -13.8695      2.00000
      8     -13.8677      2.00000
      9     -13.4991      2.00000
     10     -13.4990      2.00000
     11     -10.4224      2.00000
     12      -9.4335      2.00000
     13      -9.4334      2.00000
     14      -8.3806      2.00000
     15      -7.6460      2.00000
     16      -6.8495      2.00000
     17      -6.8494      2.00000
     18      -6.8493      2.00000
     19      -6.7215      2.00000
     20      -3.2999      2.00000
     21      -3.2998      2.00000
     22      -2.9030      2.00000
     23      -2.9029      2.00000
     24      -2.7964      2.00000
     25      -2.7961      2.00000
     26      -2.7878      2.00000
     27      -0.8764      2.00000
     28      -0.8742      2.00000
     29       0.9828      0.00000
     30       0.9902      0.00000
     31       1.3196      0.00000
     32       1.5840      0.00000
     33       1.5892      0.00000
     34       2.0895      0.00000
     35       2.8861      0.00000
     36       3.5048      0.00000
     37       3.5051      0.00000
     38       3.6091      0.00000
     39       4.6207      0.00000
     40       6.7289      0.00000
     41       7.4686      0.00000
     42       7.5941      0.00000
     43       7.6035      0.00000
     44       7.6038      0.00000
     45       7.8779      0.00000
     46       8.3898      0.00000
     47       8.4115      0.00000
     48       8.7895      0.00000

 soft charge-density along one line, spin component           1
         0         1         2         3         4         5         6         7         8         9
 total charge-density along one line

------------------------ aborting loop because EDIFF is reached ----------------------------------------

 total charge

# of ion       s       p       d       tot
    1        0.665   1.367   0.000   2.032
    2        0.653   1.214   0.000   1.867
    3        0.678   1.244   0.000   1.923
    4        0.687   1.247   0.000   1.934
    5        0.840   1.726   0.000   2.567
    6        0.810   1.745   0.000   2.555
    7        0.834   1.733   0.000   2.567
    8        0.877   1.847   0.000   2.724
    9        0.877   1.844   0.000   2.721
   10        0.876   1.846   0.000   2.723
   11        0.877   1.846   0.000   2.723
   12        0.877   1.847   0.000   2.724
   13        0.877   1.844   0.000   2.721
   14        0.877   1.845   0.000   2.722
   15        0.877   1.846   0.000   2.722
tot         12.180  25.044   0.000  37.224

         DFTD3 V3.0 Rev 1
 IVDW         = 12
 DF pbe
 parameters
 VDW_S6       =    1.0000
 VDW_S8       =    0.7875
 VDW_A1       =    0.4289
 VDW_A2       =    4.4407
 k1-k3        =   16.0000    1.3333   -4.0000
 VDW_RADIUS   =   50.2022 A
 VDW_CNRADIUS =   21.1671 A
 Edisp (eV)   -1.59129

 E6    (eV) :    -1.0990
 E8    (eV) :    -0.4923
 % E8        : 30.94

  FORCE on cell =-STRESS in cart. coord.  units (eV):
  Direction    XX          YY          ZZ          XY          YZ          ZX
  Alpha Z    58.30707    58.30707    58.30707
  Ewald    6487.59908  6487.59009 -8244.85864    -0.00502     0.00052    -0.00251
  Hartree  6405.10004  6408.68374 -6322.70482    -1.78520     0.00436     0.00321
  E(xc)    -201.78136  -201.77039  -208.79705    -0.00161     0.00008    -0.00011
  Local  -13483.20806-13487.58156 13856.80703     2.06877    -0.01284    -0.01735
  n-local   -43.61707   -45.16744   -43.96193     0.85293     0.00177    -0.00561
  augment    -4.16900    -4.19736    -3.71149     0.01746     0.00009     0.00022
  Kinetic   790.70663   779.28178   911.07536     5.76073    -0.02662     0.06347
  Fock        0.00000     0.00000     0.00000     0.00000     0.00000     0.00000
  vdW        -0.36906    -0.36906    -1.11744    -0.00001    -0.00001    -0.00000
  Total       8.56827    -5.22315     1.03808     6.90806    -0.03265     0.04132
  in kB      45.00026   -27.43182     5.45197    36.28090    -0.17149     0.21703

 VOLUME and BASIS-vectors are now :
  energy-cutoff  :      450.00
  volume of cell :      305.06
      direct lattice vectors                 reciprocal lattice vectors
     4.196759107  2.423000000  0.000000000     0.119139552  0.206355757  0.000000000
    -4.196759107  2.423000000  0.000000000    -0.119139552  0.206355757  0.000000000
     0.000000000  0.000000000 15.000000000     0.000000000  0.000000000  0.066666667

  length of vectors
     4.846000000  4.846000000 15.000000000     0.238279104  0.238279104  0.066666667

 FORCES acting on ions
    electron-ion (+dipol)            ewald-force                    non-local-force                 convergence-correction
   -.437E+00 -.417E+00 0.224E+03   0.168E-02 -.196E-02 -.224E+03   0.112E+00 0.609E-01 -.737E-01   0.295E+00 0.276E+00 -.363E-01
   -.205E+02 -.115E+02 0.227E+03   0.226E+02 0.127E+02 -.227E+03   -.291E+01 -.163E+01 0.107E-01   0.230E+00 0.123E+00 -.350E-01
   0.192E+02 -.115E+02 0.227E+03   -.223E+02 0.132E+02 -.227E+03   0.238E+01 -.178E+01 -.991E-02   0.765E-01 -.177E+00 -.373E-01
   0.439E+00 0.223E+02 0.227E+03   -.324E+00 -.259E+02 -.227E+03   -.474E+00 0.290E+01 -.583E-02   -.137E+00 0.166E+00 -.420E-01
   -.367E+00 -.357E+02 0.303E+03   -.344E+00 0.431E+02 -.303E+03   0.227E+00 -.594E+01 0.680E-01   0.698E+00 -.794E+00 -.565E-01
   0.335E+02 0.196E+02 0.303E+03   -.371E+02 -.218E+02 -.303E+03   0.600E+01 0.341E+01 0.119E+00   -.117E+01 -.520E+00 -.392E-01
   -.319E+02 0.169E+02 0.303E+03   0.375E+02 -.212E+02 -.303E+03   -.520E+01 0.323E+01 0.831E-01   0.244E-01 0.100E+01 -.588E-01
   -.172E+01 0.150E+01 -.227E+03   -.619E-01 -.492E-01 0.227E+03   0.190E+00 -.346E+00 0.647E-01   0.447E+00 -.337E+00 0.428E-01
   0.208E+01 -.213E+01 -.228E+03   -.387E+00 0.708E+00 0.228E+03   -.182E+00 0.309E+00 0.567E-02   -.391E+00 0.319E+00 0.414E-01
   -.170E+01 0.142E+01 -.228E+03   -.885E-02 -.164E-01 0.228E+03   0.186E+00 -.333E+00 0.401E-02   0.411E+00 -.291E+00 0.905E-02
   0.900E+00 -.156E+01 -.228E+03   0.808E+00 -.328E-01 0.228E+03   -.206E+00 0.346E+00 0.255E-01   -.388E+00 0.448E+00 -.451E-01
   -.180E+01 0.156E+01 -.227E+03   0.610E-01 -.114E-01 0.227E+03   0.185E+00 -.318E+00 0.685E-01   0.419E+00 -.405E+00 0.702E-01
   0.167E+01 -.133E+01 -.225E+03   0.659E-02 0.975E-02 0.225E+03   -.181E+00 0.338E+00 0.500E-01   -.364E+00 0.230E+00 0.593E-02
   -.169E+01 0.138E+01 -.226E+03   0.737E-02 0.736E-01 0.227E+03   0.171E+00 -.341E+00 -.139E-01   0.381E+00 -.340E+00 -.955E-01
   0.227E+01 -.854E+00 -.228E+03   -.425E+00 -.682E+00 0.227E+03   -.158E+00 0.342E+00 0.300E-01   -.517E+00 0.378E+00 0.258E-01
   -.140E+00 -.318E+00 -.172E+00   0.494E-14 -.422E-14 -.171E-12   0.152E+00 0.258E+00 0.425E+00   0.108E-01 0.762E-01 -.251E+00

 POSITION                                       TOTAL-FORCE (eV/Angst)
      0.00570      0.01636      1.52252        -0.030235     -0.083074      0.006960
      1.49517      0.87767      1.51067        -0.583991     -0.306956      0.016292
     -1.48495      0.87559      1.51068        -0.637140     -0.234299     -0.012365
      0.00689      3.14179      1.51063        -0.497980     -0.560299     -0.002982
      0.00689      1.58447      1.51096         0.212182      0.624931      0.008496
      2.84384      1.65631      1.51096         1.161822      0.645350      0.004868
     -2.83360      1.65425      1.51092         0.375187     -0.068821      0.018463
     -2.09809      1.21197      5.02673        -1.142251      0.770207      0.010911
     -0.69947      1.21207      5.02725         1.120172     -0.798596     -0.015639
      0.00019      0.00045      5.02614        -1.112831      0.781484     -0.004238
     -2.79746      2.42355      5.02731         1.112534     -0.799436     -0.001985
      0.00011      2.42355      5.02677        -1.135810      0.827135      0.011308
      1.39910      2.42345      5.02520         1.126550     -0.753600     -0.003240
      2.09852      1.21184      5.02671        -1.135283      0.773279     -0.037848
     -0.69929      3.63472      5.02725         1.167075     -0.817306      0.001000
    total drift:                                0.022019      0.016364      0.002793

  FREE ENERGIE OF THE ION-ELECTRON SYSTEM (eV)
  free  energy   TOTEN  =      -126.03955907 eV

  energy  without entropy=     -126.03731150  energy(sigma->0) =     -126.03843528

 stress matrix after NEB project (eV)
      8.56827      6.90806      0.04132
      6.90806     -5.22315     -0.03265
      0.04132     -0.03265      1.03808
  FORCES: max atom, RMS     1.424799    1.127257
  FORCE total and by dimension    4.365849    1.167075
  Stress total and by dimension   14.043588    8.568271
 writing wavefunctions

 total charge

# of ion       s       p       d       tot
    1        0.665   1.367   0.000   2.032
    2        0.653   1.214   0.000   1.867
    3        0.678   1.244   0.000   1.923
    4        0.687   1.247   0.000   1.934
    5        0.840   1.726   0.000   2.567
    6        0.810   1.745   0.000   2.555
    7        0.834   1.733   0.000   2.567
    8        0.877   1.847   0.000   2.724
    9        0.877   1.844   0.000   2.721
   10        0.876   1.846   0.000   2.723
   11        0.877   1.846   0.000   2.723
   12        0.877   1.847   0.000   2.724
   13        0.877   1.844   0.000   2.721
   14        0.877   1.845   0.000   2.722
   15        0.877   1.846   0.000   2.722
tot         12.180  25.044   0.000  37.224