 vasp.6.3.2 27Jun22 (build Dec 22 2022 13:13:19) complex

 executed on             LinuxIFC date 2024.03.05  01:22:49

 INCAR:
   SYSTEM = PDoS
   ISTART = 1
   ICHARG = 11
   PREC = Accurate
   LORBIT = 11
   NEDOS = 4000
   ENCUT = 450
   LCHARG = .FALSE.
   LWAVE = .FALSE.
   ALGO = Normal
   EDIFF = 1E-6
   EDIFFG = -1E-3
   SIGMA = 0.1
   ISMEAR = 0
   SYMPREC = 1E-6
   NSW = 0
   IBRION = -1
   POTIM = .5

 POTCAR:    PAW_PBE B 06Sep2000
 POTCAR:    PAW_PBE C 08Apr2002
 POTCAR:    PAW_PBE B 06Sep2000
   VRHFIN =B: s2p1

   TITEL  = PAW_PBE B 06Sep2000
   POMASS =   10.811; ZVAL   =    3.000    mass and valenz
   ENMAX  =  318.614; ENMIN  =  238.960 eV

   TITEL  = PAW_PBE C 08Apr2002
   POMASS =   12.011; ZVAL   =    4.000    mass and valenz
   ENMAX  =  400.000; ENMIN  =  300.000 eV

  PAW_PBE B 06Sep2000                   :
  PAW_PBE C 08Apr2002                   :

 POSCAR: Graphene-BC3 Hollow with lattice paramet
  positions in direct lattice
  velocities in cartesian coordinates
 exchange correlation table for  LEXCH =        8
   RHO(1)=    0.500       N(1)  =     2000
   RHO(2)=  100.500       N(2)  =     4000

 VTST: version 4.2, (08/11/21)

 CHAIN: initializing optimizer

 OPT: Using VASP Dynamics algorithm
 CHAIN: Read ICHAIN            0

 POSCAR: Graphene-BC3 Hollow with lattice paramet
  positions in direct lattice
  velocities in cartesian coordinates

 ion  position               nearest neighbor table
   1  0.338  0.669  0.113-   7 1.52   5 1.52   3 1.52
   2  0.672  0.336  0.113-   8 1.52   6 1.52   4 1.52
   3  0.164  0.322  0.113-   4 1.39   6 1.39   1 1.52
   4  0.324  0.162  0.113-   5 1.39   3 1.39   2 1.52
   5  0.164  0.843  0.113-   4 1.39   8 1.39   1 1.52
   6  0.845  0.162  0.113-   7 1.39   3 1.39   2 1.52
   7  0.686  0.843  0.113-   6 1.39   8 1.39   1 1.52
   8  0.845  0.683  0.113-   7 1.39   5 1.39   2 1.52
   9  0.333  0.167  0.338-  10 1.46  12 1.46  14 1.46
  10  0.500  0.000  0.338-   9 1.46  13 1.46  11 1.46
  11  0.333  0.667  0.338-  16 1.46  12 1.46  10 1.46
  12  0.500  0.500  0.338-   9 1.46  15 1.46  11 1.46
  13  0.833  0.167  0.338-  16 1.46  10 1.46  14 1.46
  14  0.000  0.000  0.338-   9 1.46  13 1.46  15 1.46
  15  0.833  0.667  0.338-  16 1.46  12 1.46  14 1.46
  16  0.000  0.500  0.338-  15 1.46  13 1.46  11 1.46

  LATTYP: Found a hexagonal cell.
 ALAT       =     5.0440000000
 C/A-ratio  =     2.9738302934

  Lattice vectors:

 A1 = (   4.3682321367,   2.5220000000,   0.0000000000)
 A2 = (  -4.3682321367,   2.5220000000,   0.0000000000)
 A3 = (   0.0000000000,   0.0000000000,  15.0000000000)

Analysis of symmetry for initial positions (statically):
 Subroutine PRICEL returns:
 Original cell was already a primitive cell.

 Routine SETGRP: Setting up the symmetry group for a
 hexagonal supercell.

 Subroutine GETGRP returns: Found  1 space group operations
 (whereof  1 operations were pure point group operations)
 out of a pool of 24 trial point group operations.

The static configuration has the point symmetry C_1 .

Analysis of symmetry for dynamics (positions and initial velocities):
 Subroutine PRICEL returns:
 Original cell was already a primitive cell.

 Routine SETGRP: Setting up the symmetry group for a
 hexagonal supercell.

 Subroutine GETGRP returns: Found  1 space group operations
 (whereof  1 operations were pure point group operations)
 out of a pool of 24 trial point group operations.

The dynamic configuration has the point symmetry C_1 .

 Subroutine INISYM returns: Found  1 space group operations
 (whereof  1 operations are pure point group operations),
 and found     1 'primitive' translations

                                     Primitive cell

  volume of cell :     330.5004

  direct lattice vectors                    reciprocal lattice vectors
     4.368232137  2.522000000  0.000000000     0.114462781  0.198255353  0.000000000
    -4.368232137  2.522000000  0.000000000    -0.114462781  0.198255353  0.000000000
     0.000000000  0.000000000 15.000000000     0.000000000  0.000000000  0.066666667

  length of vectors
     5.044000000  5.044000000 15.000000000     0.228925563  0.228925563  0.066666667

  position of ions in fractional coordinates (direct lattice)
     0.338203334  0.669098661  0.113381622
     0.671538623  0.335766770  0.113066104
     0.164492162  0.321676120  0.113073872
     0.324038669  0.162015918  0.113080124
     0.164492146  0.842809624  0.113074202
     0.845282693  0.162014532  0.113070458
     0.685620398  0.842806916  0.113065505
     0.845283256  0.683261954  0.113070868
     0.333481117  0.166743137  0.338140385
     0.500169288  0.000150954  0.338117411
     0.333461746  0.666733449  0.337831925
     0.500169285  0.500023737  0.338117409
     0.833456475  0.166744471  0.338135786
     0.000131755  0.000068577  0.338120511
     0.833456492  0.666717201  0.338135817
     0.000047897  0.500026647  0.338118001

  ion indices of the primitive-cell ions
   primitive index   ion index
                 1           1
                 2           2
                 3           3
                 4           4
                 5           5
                 6           6
                 7           7
                 8           8
                 9           9
                10          10
                11          11
                12          12
                13          13
                14          14
                15          15
                16          16

 KPOINTS: k-points

Automatic generation of k-mesh.
 Grid dimensions read from file:
 generate k-points for:   33   33    1

 Generating k-lattice:

  Cartesian coordinates                     Fractional coordinates (reciprocal lattice)
     0.003468569  0.006007738  0.000000000     0.030303030 -0.000000000  0.000000000
    -0.003468569  0.006007738  0.000000000    -0.000000000  0.030303030  0.000000000
     0.000000000  0.000000000  0.066666667     0.000000000  0.000000000  1.000000000

  Length of vectors
     0.006937138  0.006937138  0.066666667

  Shift w.r.t. Gamma in fractional coordinates (k-lattice)
     0.000000000  0.000000000  0.000000000

 Subroutine IBZKPT returns following result:

 Found    545 irreducible k-points:

 Following reciprocal coordinates:
            Coordinates               Weight
  0.000000  0.000000  0.000000      1.000000
  0.030303 -0.000000  0.000000      2.000000
 -0.000000  0.030303  0.000000      2.000000
 -0.030303  0.030303  0.000000      2.000000
  0.060606 -0.000000  0.000000      2.000000
 -0.000000  0.060606  0.000000      2.000000
 -0.060606  0.060606  0.000000      2.000000
  0.090909 -0.000000  0.000000      2.000000
 -0.000000  0.090909  0.000000      2.000000
 -0.090909  0.090909  0.000000      2.000000
  0.121212 -0.000000  0.000000      2.000000
 -0.000000  0.121212  0.000000      2.000000
 -0.121212  0.121212  0.000000      2.000000
  0.151515 -0.000000  0.000000      2.000000
  0.000000  0.151515  0.000000      2.000000
 -0.151515  0.151515  0.000000      2.000000
  0.181818 -0.000000  0.000000      2.000000
 -0.000000  0.181818  0.000000      2.000000
 -0.181818  0.181818  0.000000      2.000000
  0.212121 -0.000000  0.000000      2.000000
 -0.000000  0.212121  0.000000      2.000000
 -0.212121  0.212121  0.000000      2.000000
  0.242424 -0.000000  0.000000      2.000000
 -0.000000  0.242424  0.000000      2.000000
 -0.242424  0.242424  0.000000      2.000000
  0.272727  0.000000  0.000000      2.000000
 -0.000000  0.272727  0.000000      2.000000
 -0.272727  0.272727  0.000000      2.000000
  0.303030  0.000000  0.000000      2.000000
 -0.000000  0.303030  0.000000      2.000000
 -0.303030  0.303030  0.000000      2.000000
  0.333333  0.000000  0.000000      2.000000
  0.000000  0.333333  0.000000      2.000000
 -0.333333  0.333333  0.000000      2.000000
  0.363636 -0.000000  0.000000      2.000000
 -0.000000  0.363636  0.000000      2.000000
 -0.363636  0.363636  0.000000      2.000000
  0.393939  0.000000  0.000000      2.000000
 -0.000000  0.393939  0.000000      2.000000
 -0.393939  0.393939  0.000000      2.000000
  0.424242 -0.000000  0.000000      2.000000
 -0.000000  0.424242  0.000000      2.000000
 -0.424242  0.424242  0.000000      2.000000
  0.454545  0.000000  0.000000      2.000000
  0.000000  0.454545  0.000000      2.000000
 -0.454545  0.454545  0.000000      2.000000
  0.484848 -0.000000  0.000000      2.000000
 -0.000000  0.484848  0.000000      2.000000
 -0.484848  0.484848  0.000000      2.000000
  0.030303  0.030303  0.000000      2.000000
 -0.030303  0.060606  0.000000      2.000000
 -0.060606  0.030303  0.000000      2.000000
  0.060606  0.030303  0.000000      2.000000
 -0.030303  0.090909  0.000000      2.000000
 -0.090909  0.060606  0.000000      2.000000
 -0.060606  0.090909  0.000000      2.000000
  0.030303  0.060606  0.000000      2.000000
  0.090909 -0.030303  0.000000      2.000000
  0.090909  0.030303  0.000000      2.000000
 -0.030303  0.121212  0.000000      2.000000
[...]
  0.272727  0.333333  0.000000      2.000000
 -0.393939 -0.272727  0.000000      2.000000
  0.363636  0.272727  0.000000      2.000000
 -0.272727 -0.363636  0.000000      2.000000
  0.363636  0.363636  0.000000      2.000000
  0.303030  0.303030  0.000000      2.000000
 -0.303030 -0.393939  0.000000      2.000000
  0.393939  0.303030  0.000000      2.000000
  0.333333  0.303030  0.000000      2.000000
 -0.303030 -0.363636  0.000000      2.000000
  0.363636  0.333333  0.000000      2.000000
 -0.333333 -0.363636  0.000000      2.000000
  0.303030  0.333333  0.000000      2.000000
 -0.363636 -0.303030  0.000000      2.000000
  0.333333  0.333333  0.000000      2.000000

 Following cartesian coordinates:
            Coordinates               Weight
  0.000000  0.000000  0.000000      1.000000
  0.003469  0.006008  0.000000      2.000000
 -0.003469  0.006008  0.000000      2.000000
 -0.006937 -0.000000  0.000000      2.000000
  0.006937  0.012015  0.000000      2.000000
 -0.006937  0.012015  0.000000      2.000000
 -0.013874 -0.000000  0.000000      2.000000
  0.010406  0.018023  0.000000      2.000000
 -0.010406  0.018023  0.000000      2.000000
 -0.020811 -0.000000  0.000000      2.000000
  0.013874  0.024031  0.000000      2.000000
 -0.013874  0.024031  0.000000      2.000000
 -0.027749 -0.000000  0.000000      2.000000
  0.017343  0.030039  0.000000      2.000000
 -0.017343  0.030039  0.000000      2.000000
 -0.034686  0.000000  0.000000      2.000000
  0.020811  0.036046  0.000000      2.000000
 -0.020811  0.036046  0.000000      2.000000
 -0.041623 -0.000000  0.000000      2.000000
  0.024280  0.042054  0.000000      2.000000
 -0.024280  0.042054  0.000000      2.000000
 -0.048560 -0.000000  0.000000      2.000000
  0.027749  0.048062  0.000000      2.000000
 -0.027749  0.048062  0.000000      2.000000
 -0.055497  0.000000  0.000000      2.000000
  0.031217  0.054070  0.000000      2.000000
 -0.031217  0.054070  0.000000      2.000000
 -0.062434 -0.000000  0.000000      2.000000
  0.034686  0.060077  0.000000      2.000000
 -0.034686  0.060077  0.000000      2.000000
 -0.069371  0.000000  0.000000      2.000000
  0.038154  0.066085  0.000000      2.000000
[...]
 k-point  36 :  -0.0000 0.3636 0.0000  plane waves:    7153
 k-point  37 :  -0.3636 0.3636 0.0000  plane waves:    7153
 k-point  38 :   0.3939 0.0000 0.0000  plane waves:    7177
 k-point  39 :  -0.0000 0.3939 0.0000  plane waves:    7177
 k-point  40 :  -0.3939 0.3939 0.0000  plane waves:    7177
 k-point  41 :   0.4242-0.0000 0.0000  plane waves:    7181
 k-point  42 :  -0.0000 0.4242 0.0000  plane waves:    7181
 k-point  43 :  -0.4242 0.4242 0.0000  plane waves:    7181
 k-point  44 :   0.4545 0.0000 0.0000  plane waves:    7180
 k-point  45 :   0.0000 0.4545 0.0000  plane waves:    7180
 k-point  46 :  -0.4545 0.4545 0.0000  plane waves:    7180
 k-point  47 :   0.4848-0.0000 0.0000  plane waves:    7178
 k-point  48 :  -0.0000 0.4848 0.0000  plane waves:    7178
 k-point  49 :  -0.4848 0.4848 0.0000  plane waves:    7178
 k-point  50 :   0.0303 0.0303 0.0000  plane waves:    7161
 k-point  51 :  -0.0303 0.0606 0.0000  plane waves:    7161
 k-point  52 :  -0.0606 0.0303 0.0000  plane waves:    7161
 k-point  53 :   0.0606 0.0303 0.0000  plane waves:    7165
 k-point  54 :  -0.0303 0.0909 0.0000  plane waves:    7165
 k-point  55 :  -0.0909 0.0606 0.0000  plane waves:    7165
 k-point  56 :  -0.0606 0.0909 0.0000  plane waves:    7165
 k-point  57 :   0.0303 0.0606 0.0000  plane waves:    7165
 k-point  58 :   0.0909-0.0303 0.0000  plane waves:    7165
 k-point  59 :   0.0909 0.0303 0.0000  plane waves:    7163
 k-point  60 :  -0.0303 0.1212 0.0000  plane waves:    7163
[...]
 k-point 531 :   0.2727 0.3333 0.0000  plane waves:    7119
 k-point 532 :  -0.3939-0.2727 0.0000  plane waves:    7119
 k-point 533 :   0.3636 0.2727 0.0000  plane waves:    7132
 k-point 534 :  -0.2727-0.3636 0.0000  plane waves:    7132
 k-point 535 :   0.3636 0.3636 0.0000  plane waves:    7132
 k-point 536 :   0.3030 0.3030 0.0000  plane waves:    7129
 k-point 537 :  -0.3030-0.3939 0.0000  plane waves:    7129
 k-point 538 :   0.3939 0.3030 0.0000  plane waves:    7129
 k-point 539 :   0.3333 0.3030 0.0000  plane waves:    7139
 k-point 540 :  -0.3030-0.3636 0.0000  plane waves:    7139
 k-point 541 :   0.3636 0.3333 0.0000  plane waves:    7139
 k-point 542 :  -0.3333-0.3636 0.0000  plane waves:    7139
 k-point 543 :   0.3030 0.3333 0.0000  plane waves:    7139
 k-point 544 :  -0.3636-0.3030 0.0000  plane waves:    7139
 k-point 545 :   0.3333 0.3333 0.0000  plane waves:    7119

 maximum and minimum number of plane-waves per node :      7185     7119

 maximum number of plane-waves:      7185
 maximum index in each direction:
   IXMAX=    9   IYMAX=    9   IZMAX=   25
   IXMIN=   -9   IYMIN=   -9   IZMIN=  -25

 serial   3D FFT for wavefunctions
 parallel 3D FFT for charge:
    minimum data exchange during FFTs selected (reduces bandwidth)

 initial charge density was supplied:
 number of electron      62.0000005 magnetization
 keeping initial charge density in first step

 Maximum index for augmentation-charges          376 (set IRDMAX)

 First call to EWALD:  gamma=   0.256
 Maximum number of real-space cells 4x 4x 2
 Maximum number of reciprocal cells 2x 2x 5

--------------------------------------- Iteration      1(   1)  ---------------------------------------

 eigenvalue-minimisations  : 88464
 total energy-change (2. order) :-0.1392478E+03  (-0.1663518E+03)
 number of electron      62.0000005 magnetization
 augmentation part       62.0000005 magnetization

 Free energy of the ion-electron system (eV)
  alpha Z        PSCENC =        62.53960761
  Ewald energy   TEWEN  =      5474.65236662
  -Hartree energ DENC   =     -7524.43146131
  -exchange      EXHF   =         0.00000000
  -V(xc)+E(xc)   XCENC  =       206.35057954
  PAW double counting   =      6299.13068495    -6307.13708575
  entropy T*S    EENTRO =        -0.00187453
  eigenvalues    EBANDS =      -552.70954887
  atomic energy  EATOM  =      2202.35892741
  Solvation  Ediel_sol  =         0.00000000
  free energy    TOTEN  =      -139.24780434 eV

  energy without entropy =     -139.24592980  energy(sigma->0) =     -139.24686707

[...]

--------------------------------------- Iteration      1(   5)  ---------------------------------------

 eigenvalue-minimisations  : 94656
 total energy-change (2. order) :-0.3898276E-07  (-0.3904819E-07)
 number of electron      62.0000005 magnetization
 augmentation part       62.0000005 magnetization

 Free energy of the ion-electron system (eV)
  alpha Z        PSCENC =        62.53960761
  Ewald energy   TEWEN  =      5474.65236662
  -Hartree energ DENC   =     -7524.43146131
  -exchange      EXHF   =         0.00000000
  -V(xc)+E(xc)   XCENC  =       206.35057954
  PAW double counting   =      6299.13068495    -6307.13708575
  entropy T*S    EENTRO =        -0.00087129
  eigenvalues    EBANDS =      -553.85945770
  atomic energy  EATOM  =      2202.35892741
  Solvation  Ediel_sol  =         0.00000000
  free energy    TOTEN  =      -140.39670993 eV

  energy without entropy =     -140.39583864  energy(sigma->0) =     -140.39627429

 average (electrostatic) potential at core
  the test charge radii are     0.7672  0.6991
  (the norm of the test charge is              1.0000)
       1 -31.9214       2 -31.9426       3 -54.6128       4 -54.6184       5 -54.6128
       6 -54.6183       7 -54.6125       8 -54.6183       9 -56.4255      10 -56.4303
      11 -56.4410      12 -56.4304      13 -56.4258      14 -56.4369      15 -56.4258
      16 -56.4299

 E-fermi :  -1.0174     XC(G=0):  -5.0871     alpha+bet : -4.9171

 Fermi energy:        -1.0174233803

 k-point     1 :       0.0000    0.0000    0.0000
  band No.  band energies     occupation
      1     -19.8539      2.00000
      2     -18.0196      2.00000
      3     -14.9092      2.00000
      4     -14.9092      2.00000
      5     -14.9077      2.00000
      6     -13.8553      2.00000
      7     -13.8549      2.00000
      8     -13.6838      2.00000
      9     -13.6657      2.00000
     10     -13.6653      2.00000
     11     -11.6804      2.00000
     12     -11.6803      2.00000
     13     -10.6457      2.00000
     14      -9.0719      2.00000
     15      -8.1918      2.00000
     16      -7.0920      2.00000
     17      -7.0920      2.00000
     18      -7.0916      2.00000
     19      -6.6004      2.00000
     20      -6.2586      2.00000
     21      -4.0844      2.00000
     22      -4.0844      2.00000
     23      -3.9221      2.00000
     24      -3.9220      2.00000
     25      -3.1524      2.00000
     26      -3.1495      2.00000
     27      -3.1242      2.00000
     28      -2.2785      2.00000
     29      -2.2735      2.00000
     30      -1.3692      2.00000
     31      -1.3691      2.00000
     32       0.0532      0.00000
     33       0.8011      0.00000
     34       0.8050      0.00000
     35       0.9969      0.00000
     36       2.1404      0.00000
     37       2.1425      0.00000
     38       2.8613      0.00000
     39       2.8810      0.00000
     40       3.6762      0.00000
     41       4.7139      0.00000
     42       5.8469      0.00000
     43       5.8572      0.00000
     44       5.8575      0.00000
     45       7.0222      0.00000
     46       7.0224      0.00000
     47       7.1414      0.00000
     48       7.5028      0.00000

[...]

 k-point   545 :       0.3333    0.3333    0.0000
  band No.  band energies     occupation
      1     -17.9859      2.00000
      2     -17.9850      2.00000
      3     -17.9843      2.00000
      4     -17.2774      2.00000
      5     -15.3321      2.00000
      6     -15.3302      2.00000
      7     -13.2622      2.00000
      8     -13.2617      2.00000
      9     -10.9396      2.00000
     10     -10.6838      2.00000
     11     -10.6799      2.00000
     12      -8.9959      2.00000
     13      -8.5423      2.00000
     14      -8.5408      2.00000
     15      -8.5392      2.00000
     16      -7.0863      2.00000
     17      -7.0854      2.00000
     18      -7.0851      2.00000
     19      -6.1661      2.00000
     20      -6.1447      2.00000
     21      -6.1112      2.00000
     22      -5.9425      2.00000
     23      -5.9248      2.00000
     24      -5.8193      2.00000
     25      -5.0906      2.00000
     26      -4.9157      2.00000
     27      -4.0192      2.00000
     28      -4.0153      2.00000
     29      -4.0099      2.00000
     30      -4.0047      2.00000
     31      -0.9281      0.20675
     32      -0.8783      0.04914
     33       0.9362      0.00000
     34       1.0297      0.00000
     35       5.0880      0.00000
     36       5.1017      0.00000
     37       5.1028      0.00000
     38       5.4099      0.00000
     39       5.4227      0.00000
     40       5.4231      0.00000
     41       6.0348      0.00000
     42       6.0484      0.00000
     43       6.0505      0.00000
     44       7.0392      0.00000
     45       7.1214      0.00000
     46       7.1247      0.00000
     47       7.2067      0.00000
     48       7.3405      0.00000

 soft charge-density along one line, spin component           1
         0         1         2         3         4         5         6         7         8         9
 total charge-density along one line

------------------------ aborting loop because EDIFF is reached ----------------------------------------

 total charge

# of ion       s       p       d       tot
    1        0.788   1.412   0.000   2.200
    2        0.788   1.411   0.000   2.199
    3        0.892   1.794   0.000   2.685
    4        0.892   1.793   0.000   2.685
    5        0.892   1.794   0.000   2.685
    6        0.892   1.793   0.000   2.685
    7        0.892   1.794   0.000   2.685
    8        0.892   1.793   0.000   2.685
    9        0.850   1.721   0.000   2.571
   10        0.850   1.721   0.000   2.571
   11        0.850   1.720   0.000   2.570
   12        0.850   1.721   0.000   2.571
   13        0.850   1.721   0.000   2.571
   14        0.850   1.720   0.000   2.570
   15        0.850   1.721   0.000   2.571
   16        0.850   1.721   0.000   2.571
tot         13.725  27.350   0.000  41.075

  FORCE on cell =-STRESS in cart. coord.  units (eV):
  Direction    XX          YY          ZZ          XY          YZ          ZX
  Alpha Z    62.53961    62.53961    62.53961
  Ewald    7447.82282  7447.80034 -9420.97517    -0.01955     0.02735     0.01642
  Hartree  7422.16989  7422.15852 -7319.95657    -0.00953     0.01359     0.00817
  E(xc)    -226.48043  -226.48054  -234.33202    -0.00010     0.00025     0.00015
  Local  -15564.61001-15564.57635 15959.42190     0.02857    -0.04036    -0.02425
  n-local   -49.96462   -49.96475   -36.22925    -0.00006    -0.00040    -0.00024
  augment    -4.85883    -4.85861    -4.63155     0.00005     0.00003     0.00002
  Kinetic   914.18764   914.18509   994.99341    -0.00268     0.00080     0.00042
  Fock        0.00000     0.00000     0.00000     0.00000     0.00000     0.00000
  Total       0.80606     0.80331     0.83036    -0.00330     0.00125     0.00068
  in kB       3.90755     3.89421     4.02535    -0.01601     0.00607     0.00330

 VOLUME and BASIS-vectors are now :
  energy-cutoff  :      450.00
  volume of cell :      330.50
      direct lattice vectors                 reciprocal lattice vectors
     4.368232137  2.522000000  0.000000000     0.114462781  0.198255353  0.000000000
    -4.368232137  2.522000000  0.000000000    -0.114462781  0.198255353  0.000000000
     0.000000000  0.000000000 15.000000000     0.000000000  0.000000000  0.066666667

  length of vectors
     5.044000000  5.044000000 15.000000000     0.228925563  0.228925563  0.066666667

 FORCES acting on ions
    electron-ion (+dipol)            ewald-force                    non-local-force                 convergence-correction
   0.650E-03 0.172E-02 0.216E+03   -.649E-03 -.155E-02 -.216E+03   -.566E-04 -.176E-03 0.722E-01   0.543E-04 -.737E-04 0.152E-01
   0.181E-02 0.340E-02 0.217E+03   -.134E-02 -.308E-02 -.217E+03   -.172E-03 -.522E-03 -.306E-01   -.951E-04 0.149E-03 0.156E-01
   0.249E+02 -.432E+02 0.289E+03   -.271E+02 0.469E+02 -.289E+03   0.213E+01 -.368E+01 0.654E-02   0.218E-02 -.342E-02 0.207E-01
   -.250E+02 -.433E+02 0.289E+03   0.271E+02 0.469E+02 -.289E+03   -.211E+01 -.365E+01 -.277E-02   -.247E-02 -.378E-02 0.210E-01
   -.499E+02 0.483E-02 0.289E+03   0.541E+02 -.431E-02 -.289E+03   -.425E+01 -.155E-03 0.660E-02   -.415E-02 -.379E-03 0.209E-01
   0.499E+02 -.313E-02 0.289E+03   -.541E+02 0.292E-02 -.289E+03   0.422E+01 0.440E-03 -.159E-02   0.463E-02 -.163E-03 0.213E-01
   0.249E+02 0.432E+02 0.289E+03   -.271E+02 -.469E+02 -.289E+03   0.213E+01 0.368E+01 0.627E-02   0.238E-02 0.369E-02 0.197E-01
   -.250E+02 0.432E+02 0.289E+03   0.271E+02 -.469E+02 -.289E+03   -.211E+01 0.365E+01 -.172E-02   -.227E-02 0.386E-02 0.203E-01
   -.455E+00 -.787E+00 -.272E+03   0.448E+00 0.777E+00 0.272E+03   0.625E-02 0.110E-01 0.802E-01   0.180E-03 -.320E-03 0.217E-01
   -.101E+00 0.113E+00 -.271E+03   0.917E-01 -.975E-01 0.271E+03   0.921E-02 -.138E-01 0.381E-01   -.320E-03 0.424E-03 0.219E-01
   -.805E-02 -.155E-01 -.269E+03   0.847E-02 0.148E-01 0.269E+03   0.518E-03 0.725E-03 0.416E-01   -.987E-03 -.278E-03 0.217E-01
   0.148E+00 -.313E-01 -.271E+03   -.130E+00 0.305E-01 0.271E+03   -.166E-01 0.108E-02 0.381E-01   0.104E-02 -.224E-04 0.220E-01
   0.907E+00 0.161E-01 -.272E+03   -.894E+00 -.163E-01 0.272E+03   -.132E-01 -.544E-03 0.785E-01   -.144E-03 0.491E-03 0.202E-01
   0.131E-01 0.232E-01 -.273E+03   -.130E-01 -.226E-01 0.273E+03   -.851E-04 -.148E-03 0.111E+00   0.162E-03 -.207E-03 0.194E-01
   -.439E+00 0.793E+00 -.272E+03   0.433E+00 -.783E+00 0.272E+03   0.611E-02 -.118E-01 0.785E-01   0.588E-03 0.596E-03 0.204E-01
   -.669E-01 -.116E+00 -.271E+03   0.586E-01 0.101E+00 0.271E+03   0.793E-02 0.137E-01 0.380E-01   -.383E-03 -.578E-03 0.207E-01
   -.480E-03 0.281E-04 -.883E+00   0.181E-13 0.243E-13 -.171E-12   -.634E-04 -.261E-03 0.559E+00   0.384E-03 -.145E-04 0.323E+00

 POSITION                                       TOTAL-FORCE (eV/Angst)
     -1.44543      2.54042      1.70072         0.000009     -0.000067     -0.043890
      1.46673      2.54042      1.69599         0.000211     -0.000037     -0.047312
     -0.68662      1.22612      1.69611         0.018362     -0.032141     -0.050438
      0.70775      1.22583      1.69620        -0.018913     -0.032675     -0.047484
     -2.96305      2.54042      1.69611        -0.036943      0.000004     -0.050489
      2.98467      2.54040      1.69606         0.037527      0.000086     -0.047521
     -0.68663      3.85469      1.69598         0.018387      0.031901     -0.050257
      0.70775      3.85499      1.69606        -0.018893      0.032499     -0.047346
      0.72835      1.26157      5.07211         0.000252      0.000516      0.048803
      2.18420      1.26181      5.07176        -0.000785      0.001938      0.047971
     -1.45581      2.52249      5.06748        -0.000038     -0.000234      0.045381
      0.00064      2.52249      5.07176         0.002006      0.000267      0.047968
      2.91235      2.52251      5.07204        -0.000829     -0.000255      0.048880
      0.00028      0.00051      5.07181         0.000161      0.000308      0.048784
      0.72836      3.78344      5.07204         0.000170     -0.000881      0.048866
     -2.18402      1.26119      5.07177        -0.000686     -0.001229      0.048083
    total drift:                               -0.000160     -0.000248     -0.001012

  FREE ENERGIE OF THE ION-ELECTRON SYSTEM (eV)
  free  energy   TOTEN  =      -140.39670993 eV

  energy  without entropy=     -140.39583864  energy(sigma->0) =     -140.39627429

 stress matrix after NEB project (eV)
      0.80606     -0.00330      0.00068
     -0.00330      0.80331      0.00125
      0.00068      0.00125      0.83036
  FORCES: max atom, RMS     0.062563    0.053269
  FORCE total and by dimension    0.213074    0.050489
  Stress total and by dimension    1.408740    0.830358

 total charge

# of ion       s       p       d       tot
    1        0.788   1.412   0.000   2.200
    2        0.788   1.411   0.000   2.199
    3        0.892   1.794   0.000   2.685
    4        0.892   1.793   0.000   2.685
    5        0.892   1.794   0.000   2.685
    6        0.892   1.793   0.000   2.685
    7        0.892   1.794   0.000   2.685
    8        0.892   1.793   0.000   2.685
    9        0.850   1.721   0.000   2.571
   10        0.850   1.721   0.000   2.571
   11        0.850   1.720   0.000   2.570
   12        0.850   1.721   0.000   2.571
   13        0.850   1.721   0.000   2.571
   14        0.850   1.720   0.000   2.570
   15        0.850   1.721   0.000   2.571
   16        0.850   1.721   0.000   2.571
tot         13.725  27.350   0.000  41.075